ATOMIC_SPECIES
C   12.011        C_ONCV_PBE-1.0.upf
O   15.999        O_ONCV_PBE-1.0.upf
Pt  195.084       Pt_ONCV_PBE-1.0.upf

NUMERICAL_ORBITAL
C_gga_7au_100Ry_2s2p1d.orb
O_gga_7au_100Ry_2s2p1d.orb
Pt_gga_7au_100Ry_4s2p2d1f.orb

LATTICE_CONSTANT
1.8897261258369282 

LATTICE_VECTORS
11.187400000      0.0000000000      0.0000000000      
0.0000000000      18.850900000      0.0000000000      
-5.593700000      0.0000000000      9.6885700000      

ATOMIC_POSITIONS
Direct

C
0.0000000000
1
0.5804110000 0.4406320000 0.6647960000 1 1 1 v 0.0 0.0 0.0 mag 0.0 

O
0.0000000000
1
0.5969970000 0.5028380000 0.6731530000 1 1 1 v 0.0 0.0 0.0 mag 0.0 

Pt
0.0000000000
64
0.0445520000 0.0000000000 0.0222760000 0 0 0 v 0.0 0.0 0.0 mag 0.0 
0.2945520000 0.0000000000 0.0222760000 0 0 0 v 0.0 0.0 0.0 mag 0.0 
0.5445520000 0.0000000000 0.0222760000 0 0 0 v 0.0 0.0 0.0 mag 0.0 
0.7945520000 0.0000000000 0.0222760000 0 0 0 v 0.0 0.0 0.0 mag 0.0 
0.0445520000 0.0000000000 0.2722760000 0 0 0 v 0.0 0.0 0.0 mag 0.0 
0.2945520000 0.0000000000 0.2722760000 0 0 0 v 0.0 0.0 0.0 mag 0.0 
0.5445520000 0.0000000000 0.2722760000 0 0 0 v 0.0 0.0 0.0 mag 0.0 
0.7945520000 0.0000000000 0.2722760000 0 0 0 v 0.0 0.0 0.0 mag 0.0 
0.2945520000 0.0000000000 0.5222760000 0 0 0 v 0.0 0.0 0.0 mag 0.0 
0.5445520000 0.0000000000 0.5222760000 0 0 0 v 0.0 0.0 0.0 mag 0.0 
0.7945520000 0.0000000000 0.5222760000 0 0 0 v 0.0 0.0 0.0 mag 0.0 
0.0445520000 0.0000000000 0.5222760000 0 0 0 v 0.0 0.0 0.0 mag 0.0 
0.0445520000 0.0000000000 0.7722760000 0 0 0 v 0.0 0.0 0.0 mag 0.0 
0.2945520000 0.0000000000 0.7722760000 0 0 0 v 0.0 0.0 0.0 mag 0.0 
0.5445520000 0.0000000000 0.7722760000 0 0 0 v 0.0 0.0 0.0 mag 0.0 
0.7945520000 0.0000000000 0.7722760000 0 0 0 v 0.0 0.0 0.0 mag 0.0 
0.8776010000 0.1204860000 0.1884640000 1 1 1 v 0.0 0.0 0.0 mag 0.0 
0.8776110000 0.1204850000 0.4388640000 1 1 1 v 0.0 0.0 0.0 mag 0.0 
0.8772460000 0.1200970000 0.9383460000 1 1 1 v 0.0 0.0 0.0 mag 0.0 
0.6277870000 0.1204850000 0.1887500000 1 1 1 v 0.0 0.0 0.0 mag 0.0 
0.3780830000 0.1204830000 0.1886050000 1 1 1 v 0.0 0.0 0.0 mag 0.0 
0.1280850000 0.1203970000 0.1885870000 1 1 1 v 0.0 0.0 0.0 mag 0.0 
0.8772570000 0.1200920000 0.6886220000 1 1 1 v 0.0 0.0 0.0 mag 0.0 
0.1284110000 0.1204260000 0.9390730000 1 1 1 v 0.0 0.0 0.0 mag 0.0 
0.6270480000 0.1212160000 0.4388230000 1 1 1 v 0.0 0.0 0.0 mag 0.0 
0.3780770000 0.1204730000 0.9392100000 1 1 1 v 0.0 0.0 0.0 mag 0.0 
0.1281290000 0.1202930000 0.4389350000 1 1 1 v 0.0 0.0 0.0 mag 0.0 
0.6270360000 0.1212130000 0.9379340000 1 1 1 v 0.0 0.0 0.0 mag 0.0 
0.6273490000 0.1217870000 0.6885330000 1 1 1 v 0.0 0.0 0.0 mag 0.0 
0.1280910000 0.1203870000 0.6892410000 1 1 1 v 0.0 0.0 0.0 mag 0.0 
0.3781730000 0.1209360000 0.4386860000 1 1 1 v 0.0 0.0 0.0 mag 0.0 
0.3781630000 0.1209280000 0.6892270000 1 1 1 v 0.0 0.0 0.0 mag 0.0 
0.9606880000 0.2381600000 0.8550880000 1 1 1 v 0.0 0.0 0.0 mag 0.0 
0.9608870000 0.2384680000 0.1046140000 1 1 1 v 0.0 0.0 0.0 mag 0.0 
0.9605920000 0.2388210000 0.3550440000 1 1 1 v 0.0 0.0 0.0 mag 0.0 
0.4614020000 0.2388710000 0.1054420000 1 1 1 v 0.0 0.0 0.0 mag 0.0 
0.7105950000 0.2388990000 0.1049430000 1 1 1 v 0.0 0.0 0.0 mag 0.0 
0.7106120000 0.2388950000 0.3551520000 1 1 1 v 0.0 0.0 0.0 mag 0.0 
0.9609090000 0.2384610000 0.6057780000 1 1 1 v 0.0 0.0 0.0 mag 0.0 
0.2121200000 0.2385520000 0.1058940000 1 1 1 v 0.0 0.0 0.0 mag 0.0 
0.4623870000 0.2410370000 0.3586870000 1 1 1 v 0.0 0.0 0.0 mag 0.0 
0.2121300000 0.2385530000 0.8557350000 1 1 1 v 0.0 0.0 0.0 mag 0.0 
0.7102590000 0.2404370000 0.8545460000 1 1 1 v 0.0 0.0 0.0 mag 0.0 
0.7102820000 0.2404330000 0.6052320000 1 1 1 v 0.0 0.0 0.0 mag 0.0 
0.2104680000 0.2386090000 0.3547870000 1 1 1 v 0.0 0.0 0.0 mag 0.0 
0.4623670000 0.2410380000 0.8532180000 1 1 1 v 0.0 0.0 0.0 mag 0.0 
0.4608020000 0.2410390000 0.6051730000 1 1 1 v 0.0 0.0 0.0 mag 0.0 
0.2104690000 0.2386080000 0.6052200000 1 1 1 v 0.0 0.0 0.0 mag 0.0 
0.0428280000 0.3596290000 0.2709630000 1 1 1 v 0.0 0.0 0.0 mag 0.0 
0.5437940000 0.3599890000 0.2715680000 1 1 1 v 0.0 0.0 0.0 mag 0.0 
0.0428350000 0.3596310000 0.5212030000 1 1 1 v 0.0 0.0 0.0 mag 0.0 
0.5438000000 0.3600130000 0.0215280000 1 1 1 v 0.0 0.0 0.0 mag 0.0 
0.0450980000 0.3593410000 0.0225080000 1 1 1 v 0.0 0.0 0.0 mag 0.0 
0.7931120000 0.3597570000 0.2712180000 1 1 1 v 0.0 0.0 0.0 mag 0.0 
0.2945110000 0.3595330000 0.0219120000 1 1 1 v 0.0 0.0 0.0 mag 0.0 
0.8011550000 0.3599070000 0.7752480000 1 1 1 v 0.0 0.0 0.0 mag 0.0 
0.7954520000 0.3593530000 0.0238010000 1 1 1 v 0.0 0.0 0.0 mag 0.0 
0.7954650000 0.3593420000 0.5209870000 1 1 1 v 0.0 0.0 0.0 mag 0.0 
0.0451050000 0.3593380000 0.7719130000 1 1 1 v 0.0 0.0 0.0 mag 0.0 
0.2928870000 0.3596610000 0.2704670000 1 1 1 v 0.0 0.0 0.0 mag 0.0 
0.5421520000 0.3672480000 0.5185860000 1 1 1 v 0.0 0.0 0.0 mag 0.0 
0.5421600000 0.3672460000 0.7728290000 1 1 1 v 0.0 0.0 0.0 mag 0.0 
0.2929130000 0.3596890000 0.7717600000 1 1 1 v 0.0 0.0 0.0 mag 0.0 
0.2877020000 0.3589350000 0.5185280000 1 1 1 v 0.0 0.0 0.0 mag 0.0 

