ATOMIC_SPECIES
Cu  63.546        Cu_ONCV_PBE-1.0.upf
N   14.007        N_ONCV_PBE-1.0.upf

NUMERICAL_ORBITAL
Cu_gga_8au_100Ry_4s2p2d1f.orb
N_gga_7au_100Ry_2s2p1d.orb

LATTICE_CONSTANT
1.8897261258369282 

LATTICE_VECTORS
10.210622000      0.0000000000      0.0000000000      
5.1053110000      8.8426580000      0.0000000000      
0.0000000000      0.0000000000      30.252703000      

ATOMIC_POSITIONS
Direct

Cu
0.0000000000
64
0.0000000000 0.0000000000 0.3966590000 0 0 0 mag 0.0 
0.2500000000 0.0000000000 0.3966590000 0 0 0 mag 0.0 
0.5000000000 0.0000000000 0.3966590000 0 0 0 mag 0.0 
0.7500000000 0.0000000000 0.3966590000 0 0 0 mag 0.0 
0.0000000000 0.2500000000 0.3966590000 0 0 0 mag 0.0 
0.2500000000 0.2500000000 0.3966590000 0 0 0 mag 0.0 
0.5000000000 0.2500000000 0.3966590000 0 0 0 mag 0.0 
0.7500000000 0.2500000000 0.3966590000 0 0 0 mag 0.0 
0.0000000000 0.5000000000 0.3966590000 0 0 0 mag 0.0 
0.2500000000 0.5000000000 0.3966590000 0 0 0 mag 0.0 
0.5000000000 0.5000000000 0.3966590000 0 0 0 mag 0.0 
0.7500000000 0.5000000000 0.3966590000 0 0 0 mag 0.0 
0.0000000000 0.7500000000 0.3966590000 0 0 0 mag 0.0 
0.2500000000 0.7500000000 0.3966590000 0 0 0 mag 0.0 
0.5000000000 0.7500000000 0.3966590000 0 0 0 mag 0.0 
0.7500000000 0.7500000000 0.3966590000 0 0 0 mag 0.0 
0.0833330000 0.0833330000 0.4655530000 0 0 0 mag 0.0 
0.3333330000 0.0833330000 0.4655530000 0 0 0 mag 0.0 
0.5833330000 0.0833330000 0.4655530000 0 0 0 mag 0.0 
0.8333330000 0.0833330000 0.4655530000 0 0 0 mag 0.0 
0.0833330000 0.3333330000 0.4655530000 0 0 0 mag 0.0 
0.3333330000 0.3333330000 0.4655530000 0 0 0 mag 0.0 
0.5833330000 0.3333330000 0.4655530000 0 0 0 mag 0.0 
0.8333330000 0.3333330000 0.4655530000 0 0 0 mag 0.0 
0.0833330000 0.5833330000 0.4655530000 0 0 0 mag 0.0 
0.3333330000 0.5833330000 0.4655530000 0 0 0 mag 0.0 
0.5833330000 0.5833330000 0.4655530000 0 0 0 mag 0.0 
0.8333330000 0.5833330000 0.4655530000 0 0 0 mag 0.0 
0.0833330000 0.8333330000 0.4655530000 0 0 0 mag 0.0 
0.3333330000 0.8333330000 0.4655530000 0 0 0 mag 0.0 
0.5833330000 0.8333330000 0.4655530000 0 0 0 mag 0.0 
0.8333330000 0.8333330000 0.4655530000 0 0 0 mag 0.0 
0.9166430000 0.1663550000 0.5339000000 1 1 1 mag 0.0 
0.1662920000 0.1663460000 0.5339080000 1 1 1 mag 0.0 
0.4161920000 0.1664780000 0.5339420000 1 1 1 mag 0.0 
0.6663720000 0.1664800000 0.5338540000 1 1 1 mag 0.0 
0.9166360000 0.4159560000 0.5338700000 1 1 1 mag 0.0 
0.1666770000 0.4159120000 0.5338660000 1 1 1 mag 0.0 
0.4165990000 0.4163960000 0.5338560000 1 1 1 mag 0.0 
0.6664280000 0.4163720000 0.5337700000 1 1 1 mag 0.0 
0.9165460000 0.6658090000 0.5337640000 1 1 1 mag 0.0 
0.1665170000 0.6659360000 0.5337870000 1 1 1 mag 0.0 
0.4163290000 0.6665130000 0.5338340000 1 1 1 mag 0.0 
0.6662730000 0.6662820000 0.5338680000 1 1 1 mag 0.0 
0.9161230000 0.9161040000 0.5336680000 1 1 1 mag 0.0 
0.1660410000 0.9160640000 0.5336520000 1 1 1 mag 0.0 
0.4161920000 0.9164350000 0.5337500000 1 1 1 mag 0.0 
0.6662530000 0.9162820000 0.5337740000 1 1 1 mag 0.0 
0.9983390000 0.9984980000 0.6015890000 1 1 1 mag 0.0 
0.2487940000 0.9984460000 0.6017270000 1 1 1 mag 0.0 
0.4999980000 0.9988390000 0.6017970000 1 1 1 mag 0.0 
0.7490900000 0.9994430000 0.6017400000 1 1 1 mag 0.0 
0.9997000000 0.2492420000 0.6023740000 1 1 1 mag 0.0 
0.2490940000 0.2493730000 0.6021780000 1 1 1 mag 0.0 
0.4993970000 0.2493520000 0.6019200000 1 1 1 mag 0.0 
0.7496610000 0.2495370000 0.6018140000 1 1 1 mag 0.0 
0.9996360000 0.4992860000 0.6018150000 1 1 1 mag 0.0 
0.2497960000 0.4988600000 0.6018230000 1 1 1 mag 0.0 
0.4997550000 0.4994170000 0.6017940000 1 1 1 mag 0.0 
0.7496620000 0.4993220000 0.6017850000 1 1 1 mag 0.0 
0.9995630000 0.7487430000 0.6016920000 1 1 1 mag 0.0 
0.2493130000 0.7488350000 0.6017710000 1 1 1 mag 0.0 
0.4994350000 0.7493840000 0.6019210000 1 1 1 mag 0.0 
0.7497880000 0.7489700000 0.6017490000 1 1 1 mag 0.0 

N
0.0000000000
2
0.5794830000 0.5800640000 0.6462940000 1 1 1 mag 0.0 
0.8330310000 0.5811850000 0.6462280000 1 1 1 mag 0.0 

