ATOMIC_SPECIES
Cu 63.546 Cu_ONCV_PBE-1.0.upf upf201
Ag 107.868 Ag_ONCV_PBE-1.0.upf upf201

NUMERICAL_ORBITAL
Cu_gga_8au_100Ry_4s2p2d1f.orb
Ag_gga_7au_100Ry_4s2p2d1f.orb

LATTICE_CONSTANT
1.889726

LATTICE_VECTORS
    7.2299197037     0.0000000000     0.0000000000 #latvec1
    0.0000000000     7.2299197037     0.0000000000 #latvec2
    0.0000000000     0.0000000000    19.9999991802 #latvec3

ATOMIC_POSITIONS
Direct

Cu #label
0 #magnetism
32 #number of atoms
    0.1250000000     0.1250000000     0.0451870000 m  0  0  0
    0.1250000000     0.3750000000     0.1355610000 m  0  0  0
    0.3750000000     0.1250000000     0.1355610000 m  0  0  0
    0.3750000000     0.3750000000     0.0451870000 m  0  0  0
    0.6250000000     0.1250000000     0.0451870000 m  0  0  0
    0.6250000000     0.3750000000     0.1355610000 m  0  0  0
    0.8750000000     0.1250000000     0.1355610000 m  0  0  0
    0.8750000000     0.3750000000     0.0451870000 m  0  0  0
    0.1250000000     0.6250000000     0.0451870000 m  0  0  0
    0.1250000000     0.8750000000     0.1355610000 m  0  0  0
    0.3750000000     0.6250000000     0.1355610000 m  0  0  0
    0.3750000000     0.8750000000     0.0451870000 m  0  0  0
    0.6250000000     0.6250000000     0.0451870000 m  0  0  0
    0.6250000000     0.8750000000     0.1355610000 m  0  0  0
    0.8750000000     0.6250000000     0.1355610000 m  0  0  0
    0.8750000000     0.8750000000     0.0451870000 m  0  0  0
    0.1250714649     0.1250843574     0.2242440040 m  1  1  1
    0.1251323284     0.3723485850     0.3118231689 m  1  1  1
    0.3723316573     0.1251533333     0.3118215790 m  1  1  1
    0.3755853310     0.3756011018     0.2246796268 m  1  1  1
    0.6249838382     0.1252903333     0.2248977211 m  1  1  1
    0.6251601424     0.3684904175     0.3127961437 m  1  1  1
    0.8779242953     0.1251444640     0.3118083145 m  1  1  1
    0.8747126142     0.3755550263     0.2246439858 m  1  1  1
    0.1252490206     0.6249836378     0.2248969231 m  1  1  1
    0.1251234246     0.8779417095     0.3118081199 m  1  1  1
    0.3684740596     0.6251852003     0.3127860627 m  1  1  1
    0.3755337851     0.8747337974     0.2246389336 m  1  1  1
    0.6250339184     0.6250418887     0.2251001665 m  1  1  1
    0.6251493538     0.8817050708     0.3126402931 m  1  1  1
    0.8816888355     0.6251747491     0.3126499477 m  1  1  1
    0.8747490216     0.8747643555     0.2246034157 m  1  1  1

Ag #label
0 #magnetism
1 #number of atoms
    0.6252627470     0.6252999582     0.4038936008 m  1  1  1
