ATOMIC_SPECIES
H   1.008         H_ONCV_PBE-1.0.upf
Au  196.966569    Au_ONCV_PBE-1.0.upf

NUMERICAL_ORBITAL
H_gga_6au_100Ry_2s1p.orb
Au_gga_7au_100Ry_4s2p2d1f.orb

LATTICE_CONSTANT
1.889726

LATTICE_VECTORS
11.535196000      0.0000000000      0.0000000000      
0.0000000000      19.063794000      0.0000000000      
-5.767598000      0.0000000000      9.9897730000      

ATOMIC_POSITIONS
Direct

H
0.0000000000
2
0.6283600000 0.5168380000 0.7133350000 1 1 1 mag 0.0 
0.3685240000 0.5166850000 0.4536510000 1 1 1 mag 0.0 

Au
0.0000000000
64
0.0400000000 0.1000000000 0.0400000000 0 0 0 mag 0.0 
0.2900000000 0.1000000000 0.0400000000 0 0 0 mag 0.0 
0.5400000000 0.1000000000 0.0400000000 0 0 0 mag 0.0 
0.7900000000 0.1000000000 0.0400000000 0 0 0 mag 0.0 
0.0400000000 0.1000000000 0.2900000000 0 0 0 mag 0.0 
0.2900000000 0.1000000000 0.2900000000 0 0 0 mag 0.0 
0.5400000000 0.1000000000 0.2900000000 0 0 0 mag 0.0 
0.7900000000 0.1000000000 0.2900000000 0 0 0 mag 0.0 
0.0400000000 0.1000000000 0.5400000000 0 0 0 mag 0.0 
0.2900000000 0.1000000000 0.5400000000 0 0 0 mag 0.0 
0.5400000000 0.1000000000 0.5400000000 0 0 0 mag 0.0 
0.7900000000 0.1000000000 0.5400000000 0 0 0 mag 0.0 
0.0400000000 0.1000000000 0.7900000000 0 0 0 mag 0.0 
0.2900000000 0.1000000000 0.7900000000 0 0 0 mag 0.0 
0.5400000000 0.1000000000 0.7900000000 0 0 0 mag 0.0 
0.7900000000 0.1000000000 0.7900000000 0 0 0 mag 0.0 
0.1233330000 0.2235120000 0.2066670000 0 0 0 mag 0.0 
0.3733330000 0.2235120000 0.2066670000 0 0 0 mag 0.0 
0.6233330000 0.2235120000 0.2066670000 0 0 0 mag 0.0 
0.8733330000 0.2235120000 0.2066670000 0 0 0 mag 0.0 
0.1233330000 0.2235120000 0.4566670000 0 0 0 mag 0.0 
0.3733330000 0.2235120000 0.4566670000 0 0 0 mag 0.0 
0.6233330000 0.2235120000 0.4566670000 0 0 0 mag 0.0 
0.8733330000 0.2235120000 0.4566670000 0 0 0 mag 0.0 
0.1233330000 0.2235120000 0.7066670000 0 0 0 mag 0.0 
0.3733330000 0.2235120000 0.7066670000 0 0 0 mag 0.0 
0.6233330000 0.2235120000 0.7066670000 0 0 0 mag 0.0 
0.8733330000 0.2235120000 0.7066670000 0 0 0 mag 0.0 
0.1233330000 0.2235120000 0.9566670000 0 0 0 mag 0.0 
0.3733330000 0.2235120000 0.9566670000 0 0 0 mag 0.0 
0.6233330000 0.2235120000 0.9566670000 0 0 0 mag 0.0 
0.8733330000 0.2235120000 0.9566670000 0 0 0 mag 0.0 
0.2090340000 0.3471750000 0.1260570000 1 1 1 mag 0.0 
0.4552030000 0.3461720000 0.1222810000 1 1 1 mag 0.0 
0.7061600000 0.3470140000 0.1234870000 1 1 1 mag 0.0 
0.9572100000 0.3468940000 0.1227360000 1 1 1 mag 0.0 
0.2065220000 0.3473080000 0.3728560000 1 1 1 mag 0.0 
0.4576190000 0.3480760000 0.3763570000 1 1 1 mag 0.0 
0.7072050000 0.3468610000 0.3728270000 1 1 1 mag 0.0 
0.9564800000 0.3470250000 0.3738060000 1 1 1 mag 0.0 
0.2073980000 0.3476500000 0.6224920000 1 1 1 mag 0.0 
0.4568850000 0.3481910000 0.6232430000 1 1 1 mag 0.0 
0.7040560000 0.3480790000 0.6226610000 1 1 1 mag 0.0 
0.9578590000 0.3461860000 0.6248600000 1 1 1 mag 0.0 
0.2064090000 0.3458270000 0.8737510000 1 1 1 mag 0.0 
0.4575660000 0.3476670000 0.8725860000 1 1 1 mag 0.0 
0.7071850000 0.3472790000 0.8734240000 1 1 1 mag 0.0 
0.9544400000 0.3472200000 0.8713670000 1 1 1 mag 0.0 
0.0415270000 0.4732690000 0.0398340000 1 1 1 mag 0.0 
0.2898110000 0.4735060000 0.0392370000 1 1 1 mag 0.0 
0.5389640000 0.4740020000 0.0412290000 1 1 1 mag 0.0 
0.7913840000 0.4726060000 0.0422800000 1 1 1 mag 0.0 
0.0379930000 0.4726880000 0.2889160000 1 1 1 mag 0.0 
0.2863880000 0.4775010000 0.2829210000 1 1 1 mag 0.0 
0.5409030000 0.4718610000 0.2880060000 1 1 1 mag 0.0 
0.7900120000 0.4747710000 0.2899720000 1 1 1 mag 0.0 
0.0391160000 0.4739830000 0.5410410000 1 1 1 mag 0.0 
0.2848650000 0.4754660000 0.5422450000 1 1 1 mag 0.0 
0.5451040000 0.4804970000 0.5365970000 1 1 1 mag 0.0 
0.7927590000 0.4718060000 0.5394790000 1 1 1 mag 0.0 
0.0415850000 0.4734510000 0.7906490000 1 1 1 mag 0.0 
0.2889770000 0.4734050000 0.7914260000 1 1 1 mag 0.0 
0.5384610000 0.4754620000 0.7956800000 1 1 1 mag 0.0 
0.7985320000 0.4774610000 0.7946840000 1 1 1 mag 0.0 

