ATOMIC_SPECIES
H   1.008         H_ONCV_PBE-1.0.upf
Au  196.966569    Au_ONCV_PBE-1.0.upf

NUMERICAL_ORBITAL
H_gga_6au_100Ry_2s1p.orb
Au_gga_7au_100Ry_4s2p2d1f.orb

LATTICE_CONSTANT
1.8897261258369282 

LATTICE_VECTORS
11.535200000      0.0000000000      0.0000000000      
0.0000000000      19.063800000      0.0000000000      
-5.767600000      0.0000000000      9.9897700000      

ATOMIC_POSITIONS
Direct

H
0.0000000000
2
0.5858000000 0.5294650000 0.6991560000 1 1 1 v 0.0 0.0 0.0 mag 0.0 
0.3830980000 0.5308330000 0.4998810000 1 1 1 v 0.0 0.0 0.0 mag 0.0 

Au
0.0000000000
64
0.0400000000 0.1000000000 0.0400000000 0 0 0 v 0.0 0.0 0.0 mag 0.0 
0.2900000000 0.1000000000 0.0400000000 0 0 0 v 0.0 0.0 0.0 mag 0.0 
0.5400000000 0.1000000000 0.0400000000 0 0 0 v 0.0 0.0 0.0 mag 0.0 
0.7900000000 0.1000000000 0.0400000000 0 0 0 v 0.0 0.0 0.0 mag 0.0 
0.0400000000 0.1000000000 0.2900000000 0 0 0 v 0.0 0.0 0.0 mag 0.0 
0.2900000000 0.1000000000 0.2900000000 0 0 0 v 0.0 0.0 0.0 mag 0.0 
0.5400000000 0.1000000000 0.2900000000 0 0 0 v 0.0 0.0 0.0 mag 0.0 
0.7900000000 0.1000000000 0.2900000000 0 0 0 v 0.0 0.0 0.0 mag 0.0 
0.0400000000 0.1000000000 0.5400000000 0 0 0 v 0.0 0.0 0.0 mag 0.0 
0.2900000000 0.1000000000 0.5400000000 0 0 0 v 0.0 0.0 0.0 mag 0.0 
0.5400000000 0.1000000000 0.5400000000 0 0 0 v 0.0 0.0 0.0 mag 0.0 
0.7900000000 0.1000000000 0.5400000000 0 0 0 v 0.0 0.0 0.0 mag 0.0 
0.0400000000 0.1000000000 0.7900000000 0 0 0 v 0.0 0.0 0.0 mag 0.0 
0.2900000000 0.1000000000 0.7900000000 0 0 0 v 0.0 0.0 0.0 mag 0.0 
0.5400000000 0.1000000000 0.7900000000 0 0 0 v 0.0 0.0 0.0 mag 0.0 
0.7900000000 0.1000000000 0.7900000000 0 0 0 v 0.0 0.0 0.0 mag 0.0 
0.1233330000 0.2235120000 0.2066670000 0 0 0 v 0.0 0.0 0.0 mag 0.0 
0.3733330000 0.2235120000 0.2066670000 0 0 0 v 0.0 0.0 0.0 mag 0.0 
0.6233330000 0.2235120000 0.2066670000 0 0 0 v 0.0 0.0 0.0 mag 0.0 
0.8733330000 0.2235120000 0.2066670000 0 0 0 v 0.0 0.0 0.0 mag 0.0 
0.1233330000 0.2235120000 0.4566670000 0 0 0 v 0.0 0.0 0.0 mag 0.0 
0.3733330000 0.2235120000 0.4566670000 0 0 0 v 0.0 0.0 0.0 mag 0.0 
0.6233330000 0.2235120000 0.4566670000 0 0 0 v 0.0 0.0 0.0 mag 0.0 
0.8733330000 0.2235120000 0.4566670000 0 0 0 v 0.0 0.0 0.0 mag 0.0 
0.1233330000 0.2235120000 0.7066670000 0 0 0 v 0.0 0.0 0.0 mag 0.0 
0.3733330000 0.2235120000 0.7066670000 0 0 0 v 0.0 0.0 0.0 mag 0.0 
0.6233330000 0.2235120000 0.7066670000 0 0 0 v 0.0 0.0 0.0 mag 0.0 
0.8733330000 0.2235120000 0.7066670000 0 0 0 v 0.0 0.0 0.0 mag 0.0 
0.1233330000 0.2235120000 0.9566670000 0 0 0 v 0.0 0.0 0.0 mag 0.0 
0.3733330000 0.2235120000 0.9566670000 0 0 0 v 0.0 0.0 0.0 mag 0.0 
0.6233330000 0.2235120000 0.9566670000 0 0 0 v 0.0 0.0 0.0 mag 0.0 
0.8733330000 0.2235120000 0.9566670000 0 0 0 v 0.0 0.0 0.0 mag 0.0 
0.2086940000 0.3467590000 0.1252800000 1 1 1 v 0.0 0.0 0.0 mag 0.0 
0.4563570000 0.3464000000 0.1239610000 1 1 1 v 0.0 0.0 0.0 mag 0.0 
0.7062850000 0.3471630000 0.1237480000 1 1 1 v 0.0 0.0 0.0 mag 0.0 
0.9568950000 0.3470300000 0.1231930000 1 1 1 v 0.0 0.0 0.0 mag 0.0 
0.2065880000 0.3478220000 0.3728430000 1 1 1 v 0.0 0.0 0.0 mag 0.0 
0.4573550000 0.3497750000 0.3781950000 1 1 1 v 0.0 0.0 0.0 mag 0.0 
0.7061580000 0.3470360000 0.3740750000 1 1 1 v 0.0 0.0 0.0 mag 0.0 
0.9565230000 0.3471740000 0.3739890000 1 1 1 v 0.0 0.0 0.0 mag 0.0 
0.2083870000 0.3485900000 0.6223520000 1 1 1 v 0.0 0.0 0.0 mag 0.0 
0.4564510000 0.3491640000 0.6237060000 1 1 1 v 0.0 0.0 0.0 mag 0.0 
0.7019440000 0.3498430000 0.6228830000 1 1 1 v 0.0 0.0 0.0 mag 0.0 
0.9561940000 0.3464450000 0.6238470000 1 1 1 v 0.0 0.0 0.0 mag 0.0 
0.2066730000 0.3459180000 0.8734450000 1 1 1 v 0.0 0.0 0.0 mag 0.0 
0.4577600000 0.3485040000 0.8718180000 1 1 1 v 0.0 0.0 0.0 mag 0.0 
0.7072740000 0.3478520000 0.8735370000 1 1 1 v 0.0 0.0 0.0 mag 0.0 
0.9545720000 0.3469140000 0.8712590000 1 1 1 v 0.0 0.0 0.0 mag 0.0 
0.0404390000 0.4738860000 0.0394920000 1 1 1 v 0.0 0.0 0.0 mag 0.0 
0.2896980000 0.4733410000 0.0403470000 1 1 1 v 0.0 0.0 0.0 mag 0.0 
0.5392840000 0.4733080000 0.0437100000 1 1 1 v 0.0 0.0 0.0 mag 0.0 
0.7922010000 0.4737690000 0.0435890000 1 1 1 v 0.0 0.0 0.0 mag 0.0 
0.0367250000 0.4737540000 0.2879840000 1 1 1 v 0.0 0.0 0.0 mag 0.0 
0.2863650000 0.4762020000 0.2853380000 1 1 1 v 0.0 0.0 0.0 mag 0.0 
0.5389620000 0.4737810000 0.2920620000 1 1 1 v 0.0 0.0 0.0 mag 0.0 
0.7885320000 0.4736400000 0.2917890000 1 1 1 v 0.0 0.0 0.0 mag 0.0 
0.0366000000 0.4732980000 0.5409530000 1 1 1 v 0.0 0.0 0.0 mag 0.0 
0.2802950000 0.4779680000 0.5387180000 1 1 1 v 0.0 0.0 0.0 mag 0.0 
0.5399860000 0.4889030000 0.5389650000 1 1 1 v 0.0 0.0 0.0 mag 0.0 
0.7877710000 0.4737690000 0.5411690000 1 1 1 v 0.0 0.0 0.0 mag 0.0 
0.0395460000 0.4733760000 0.7903120000 1 1 1 v 0.0 0.0 0.0 mag 0.0 
0.2883640000 0.4737430000 0.7918960000 1 1 1 v 0.0 0.0 0.0 mag 0.0 
0.5413610000 0.4778520000 0.8001300000 1 1 1 v 0.0 0.0 0.0 mag 0.0 
0.7943330000 0.4767130000 0.7936920000 1 1 1 v 0.0 0.0 0.0 mag 0.0 

