ATOMIC_SPECIES
C   12.011        C_ONCV_PBE-1.0.upf
Pt  195.084       Pt_ONCV_PBE-1.0.upf
H   1.008         H_ONCV_PBE-1.0.upf

NUMERICAL_ORBITAL
C_gga_7au_100Ry_2s2p1d.orb
Pt_gga_7au_100Ry_4s2p2d1f.orb
H_gga_6au_100Ry_2s1p.orb

LATTICE_CONSTANT
1.8897261258369282 

LATTICE_VECTORS
12.322700000      0.0000000000      0.0000000000      
0.0000000000      20.000000000      0.0000000000      
-6.161540000      0.0000000000      10.671500000      

ATOMIC_POSITIONS
Direct

C
0.0000000000
54
0.0232940000 0.5054170000 0.0252940000 1 1 1 v 0.0 0.0 0.0 mag 0.0 
0.1569120000 0.5031970000 0.0931800000 1 1 1 v 0.0 0.0 0.0 mag 0.0 
0.2250100000 0.5038130000 0.0280840000 1 1 1 v 0.0 0.0 0.0 mag 0.0 
0.3587870000 0.5056770000 0.0962010000 1 1 1 v 0.0 0.0 0.0 mag 0.0 
0.4244880000 0.5038500000 0.0279250000 1 1 1 v 0.0 0.0 0.0 mag 0.0 
0.5574660000 0.5045280000 0.0934200000 1 1 1 v 0.0 0.0 0.0 mag 0.0 
0.6231220000 0.5033540000 0.0250280000 1 1 1 v 0.0 0.0 0.0 mag 0.0 
0.7561260000 0.5036310000 0.0906140000 1 1 1 v 0.0 0.0 0.0 mag 0.0 
0.8217630000 0.5064860000 0.0224520000 1 1 1 v 0.0 0.0 0.0 mag 0.0 
0.9555590000 0.5044280000 0.0906950000 1 1 1 v 0.0 0.0 0.0 mag 0.0 
0.0214090000 0.4994290000 0.2236390000 1 1 1 v 0.0 0.0 0.0 mag 0.0 
0.1545950000 0.4973150000 0.2911580000 1 1 1 v 0.0 0.0 0.0 mag 0.0 
0.2228570000 0.5010600000 0.2264790000 1 1 1 v 0.0 0.0 0.0 mag 0.0 
0.3571010000 0.5052870000 0.2960950000 1 1 1 v 0.0 0.0 0.0 mag 0.0 
0.4249230000 0.5094020000 0.2293650000 1 1 1 v 0.0 0.0 0.0 mag 0.0 
0.5591320000 0.5126030000 0.2963860000 1 1 1 v 0.0 0.0 0.0 mag 0.0 
0.6246190000 0.5071740000 0.2272450000 1 1 1 v 0.0 0.0 0.0 mag 0.0 
0.7574500000 0.5038550000 0.2919050000 1 1 1 v 0.0 0.0 0.0 mag 0.0 
0.8228590000 0.5015150000 0.2239770000 1 1 1 v 0.0 0.0 0.0 mag 0.0 
0.9557170000 0.4983910000 0.2910490000 1 1 1 v 0.0 0.0 0.0 mag 0.0 
0.0225020000 0.4958000000 0.4248890000 1 1 1 v 0.0 0.0 0.0 mag 0.0 
0.1547120000 0.4930750000 0.4922210000 1 1 1 v 0.0 0.0 0.0 mag 0.0 
0.2191780000 0.4932990000 0.4242610000 1 1 1 v 0.0 0.0 0.0 mag 0.0 
0.3509480000 0.4948980000 0.4906920000 1 1 1 v 0.0 0.0 0.0 mag 0.0 
0.4170750000 0.5048820000 0.4277830000 1 1 1 v 0.0 0.0 0.0 mag 0.0 
0.6324790000 0.5197730000 0.4278900000 1 1 1 v 0.0 0.0 0.0 mag 0.0 
0.7620240000 0.5122490000 0.4927100000 1 1 1 v 0.0 0.0 0.0 mag 0.0 
0.8258350000 0.5035010000 0.4251530000 1 1 1 v 0.0 0.0 0.0 mag 0.0 
0.9578630000 0.4985170000 0.4926340000 1 1 1 v 0.0 0.0 0.0 mag 0.0 
0.0250650000 0.4990000000 0.6266230000 1 1 1 v 0.0 0.0 0.0 mag 0.0 
0.1575610000 0.4966070000 0.6938940000 1 1 1 v 0.0 0.0 0.0 mag 0.0 
0.2222850000 0.4936530000 0.6262620000 1 1 1 v 0.0 0.0 0.0 mag 0.0 
0.3550170000 0.4942650000 0.6937060000 1 1 1 v 0.0 0.0 0.0 mag 0.0 
0.4202140000 0.4947500000 0.6266550000 1 1 1 v 0.0 0.0 0.0 mag 0.0 
0.5506420000 0.5022390000 0.6885480000 1 1 1 v 0.0 0.0 0.0 mag 0.0 
0.7648950000 0.5255680000 0.6923240000 1 1 1 v 0.0 0.0 0.0 mag 0.0 
0.8296260000 0.5142250000 0.6278990000 1 1 1 v 0.0 0.0 0.0 mag 0.0 
0.9607830000 0.5050660000 0.6943700000 1 1 1 v 0.0 0.0 0.0 mag 0.0 
0.0257910000 0.5059320000 0.8274180000 1 1 1 v 0.0 0.0 0.0 mag 0.0 
0.1588950000 0.5026400000 0.8948850000 1 1 1 v 0.0 0.0 0.0 mag 0.0 
0.2246880000 0.4992950000 0.8276640000 1 1 1 v 0.0 0.0 0.0 mag 0.0 
0.3577530000 0.4998290000 0.8947660000 1 1 1 v 0.0 0.0 0.0 mag 0.0 
0.4234010000 0.4980830000 0.8268800000 1 1 1 v 0.0 0.0 0.0 mag 0.0 
0.5563150000 0.5018200000 0.8912010000 1 1 1 v 0.0 0.0 0.0 mag 0.0 
0.6213260000 0.5052430000 0.8211990000 1 1 1 v 0.0 0.0 0.0 mag 0.0 
0.7554860000 0.5109850000 0.8893020000 1 1 1 v 0.0 0.0 0.0 mag 0.0 
0.8234370000 0.5163840000 0.8230640000 1 1 1 v 0.0 0.0 0.0 mag 0.0 
0.9574800000 0.5095870000 0.8919870000 1 1 1 v 0.0 0.0 0.0 mag 0.0 
0.6280140000 0.6613740000 0.5823100000 1 1 1 v 0.0 0.0 0.0 mag 0.0 
0.7638000000 0.6819310000 0.6616560000 1 1 1 v 0.0 0.0 0.0 mag 0.0 
0.7674060000 0.7581420000 0.6815300000 1 1 1 v 0.0 0.0 0.0 mag 0.0 
0.6882140000 0.7789130000 0.7400340000 1 1 1 v 0.0 0.0 0.0 mag 0.0 
0.5531570000 0.7537330000 0.6639610000 1 1 1 v 0.0 0.0 0.0 mag 0.0 
0.5499910000 0.6775770000 0.6433100000 1 1 1 v 0.0 0.0 0.0 mag 0.0 

Pt
0.0000000000
1
0.5840440000 0.5475560000 0.5569610000 1 1 1 v 0.0 0.0 0.0 mag 0.0 

H
0.0000000000
12
0.5002350000 0.7656670000 0.7115160000 1 1 1 v 0.0 0.0 0.0 mag 0.0 
0.5892020000 0.6906000000 0.4945220000 1 1 1 v 0.0 0.0 0.0 mag 0.0 
0.8179950000 0.6682130000 0.6163750000 1 1 1 v 0.0 0.0 0.0 mag 0.0 
0.8068970000 0.6561810000 0.7525130000 1 1 1 v 0.0 0.0 0.0 mag 0.0 
0.8648980000 0.7745900000 0.7407320000 1 1 1 v 0.0 0.0 0.0 mag 0.0 
0.7317100000 0.7834100000 0.5904260000 1 1 1 v 0.0 0.0 0.0 mag 0.0 
0.6888230000 0.8336230000 0.7490280000 1 1 1 v 0.0 0.0 0.0 mag 0.0 
0.7309180000 0.7585130000 0.8357270000 1 1 1 v 0.0 0.0 0.0 mag 0.0 
0.5049940000 0.7789460000 0.5722220000 1 1 1 v 0.0 0.0 0.0 mag 0.0 
0.4524330000 0.6606920000 0.5856540000 1 1 1 v 0.0 0.0 0.0 mag 0.0 
0.5894820000 0.6519650000 0.7342510000 1 1 1 v 0.0 0.0 0.0 mag 0.0 
0.5733100000 0.6105000000 0.4706420000 1 1 1 v 0.0 0.0 0.0 mag 0.0 

