ATOMIC_SPECIES
H   1.008         H_ONCV_PBE-1.0.upf
Au  196.966569    Au_ONCV_PBE-1.0.upf

NUMERICAL_ORBITAL
H_gga_6au_100Ry_2s1p.orb
Au_gga_7au_100Ry_4s2p2d1f.orb

LATTICE_CONSTANT
1.8897261258369282 

LATTICE_VECTORS
11.535200000      0.0000000000      0.0000000000      
0.0000000000      19.063800000      0.0000000000      
-5.767600000      0.0000000000      9.9897700000      

ATOMIC_POSITIONS
Direct

H
0.0000000000
2
0.6011270000 0.5247690000 0.7071900000 1 1 1 v 0.0 0.0 0.0 mag 0.0 
0.3738190000 0.5254870000 0.4814890000 1 1 1 v 0.0 0.0 0.0 mag 0.0 

Au
0.0000000000
64
0.0400000000 0.1000000000 0.0400000000 0 0 0 v 0.0 0.0 0.0 mag 0.0 
0.2900000000 0.1000000000 0.0400000000 0 0 0 v 0.0 0.0 0.0 mag 0.0 
0.5400000000 0.1000000000 0.0400000000 0 0 0 v 0.0 0.0 0.0 mag 0.0 
0.7900000000 0.1000000000 0.0400000000 0 0 0 v 0.0 0.0 0.0 mag 0.0 
0.0400000000 0.1000000000 0.2900000000 0 0 0 v 0.0 0.0 0.0 mag 0.0 
0.2900000000 0.1000000000 0.2900000000 0 0 0 v 0.0 0.0 0.0 mag 0.0 
0.5400000000 0.1000000000 0.2900000000 0 0 0 v 0.0 0.0 0.0 mag 0.0 
0.7900000000 0.1000000000 0.2900000000 0 0 0 v 0.0 0.0 0.0 mag 0.0 
0.0400000000 0.1000000000 0.5400000000 0 0 0 v 0.0 0.0 0.0 mag 0.0 
0.2900000000 0.1000000000 0.5400000000 0 0 0 v 0.0 0.0 0.0 mag 0.0 
0.5400000000 0.1000000000 0.5400000000 0 0 0 v 0.0 0.0 0.0 mag 0.0 
0.7900000000 0.1000000000 0.5400000000 0 0 0 v 0.0 0.0 0.0 mag 0.0 
0.0400000000 0.1000000000 0.7900000000 0 0 0 v 0.0 0.0 0.0 mag 0.0 
0.2900000000 0.1000000000 0.7900000000 0 0 0 v 0.0 0.0 0.0 mag 0.0 
0.5400000000 0.1000000000 0.7900000000 0 0 0 v 0.0 0.0 0.0 mag 0.0 
0.7900000000 0.1000000000 0.7900000000 0 0 0 v 0.0 0.0 0.0 mag 0.0 
0.1233330000 0.2235120000 0.2066670000 0 0 0 v 0.0 0.0 0.0 mag 0.0 
0.3733330000 0.2235120000 0.2066670000 0 0 0 v 0.0 0.0 0.0 mag 0.0 
0.6233330000 0.2235120000 0.2066670000 0 0 0 v 0.0 0.0 0.0 mag 0.0 
0.8733330000 0.2235120000 0.2066670000 0 0 0 v 0.0 0.0 0.0 mag 0.0 
0.1233330000 0.2235120000 0.4566670000 0 0 0 v 0.0 0.0 0.0 mag 0.0 
0.3733330000 0.2235120000 0.4566670000 0 0 0 v 0.0 0.0 0.0 mag 0.0 
0.6233330000 0.2235120000 0.4566670000 0 0 0 v 0.0 0.0 0.0 mag 0.0 
0.8733330000 0.2235120000 0.4566670000 0 0 0 v 0.0 0.0 0.0 mag 0.0 
0.1233330000 0.2235120000 0.7066670000 0 0 0 v 0.0 0.0 0.0 mag 0.0 
0.3733330000 0.2235120000 0.7066670000 0 0 0 v 0.0 0.0 0.0 mag 0.0 
0.6233330000 0.2235120000 0.7066670000 0 0 0 v 0.0 0.0 0.0 mag 0.0 
0.8733330000 0.2235120000 0.7066670000 0 0 0 v 0.0 0.0 0.0 mag 0.0 
0.1233330000 0.2235120000 0.9566670000 0 0 0 v 0.0 0.0 0.0 mag 0.0 
0.3733330000 0.2235120000 0.9566670000 0 0 0 v 0.0 0.0 0.0 mag 0.0 
0.6233330000 0.2235120000 0.9566670000 0 0 0 v 0.0 0.0 0.0 mag 0.0 
0.8733330000 0.2235120000 0.9566670000 0 0 0 v 0.0 0.0 0.0 mag 0.0 
0.2081520000 0.3471650000 0.1264650000 1 1 1 v 0.0 0.0 0.0 mag 0.0 
0.4553300000 0.3463560000 0.1243420000 1 1 1 v 0.0 0.0 0.0 mag 0.0 
0.7055630000 0.3471830000 0.1242340000 1 1 1 v 0.0 0.0 0.0 mag 0.0 
0.9563080000 0.3470770000 0.1235670000 1 1 1 v 0.0 0.0 0.0 mag 0.0 
0.2056670000 0.3477730000 0.3734470000 1 1 1 v 0.0 0.0 0.0 mag 0.0 
0.4565810000 0.3494800000 0.3784320000 1 1 1 v 0.0 0.0 0.0 mag 0.0 
0.7056790000 0.3469930000 0.3743240000 1 1 1 v 0.0 0.0 0.0 mag 0.0 
0.9557840000 0.3471900000 0.3744530000 1 1 1 v 0.0 0.0 0.0 mag 0.0 
0.2070980000 0.3481910000 0.6232340000 1 1 1 v 0.0 0.0 0.0 mag 0.0 
0.4556080000 0.3488630000 0.6242540000 1 1 1 v 0.0 0.0 0.0 mag 0.0 
0.7014230000 0.3495310000 0.6233650000 1 1 1 v 0.0 0.0 0.0 mag 0.0 
0.9555880000 0.3463750000 0.6246660000 1 1 1 v 0.0 0.0 0.0 mag 0.0 
0.2054140000 0.3459230000 0.8745040000 1 1 1 v 0.0 0.0 0.0 mag 0.0 
0.4566470000 0.3481410000 0.8728390000 1 1 1 v 0.0 0.0 0.0 mag 0.0 
0.7064100000 0.3477820000 0.8742140000 1 1 1 v 0.0 0.0 0.0 mag 0.0 
0.9532830000 0.3472420000 0.8716740000 1 1 1 v 0.0 0.0 0.0 mag 0.0 
0.0388930000 0.4740340000 0.0408230000 1 1 1 v 0.0 0.0 0.0 mag 0.0 
0.2878720000 0.4734690000 0.0420080000 1 1 1 v 0.0 0.0 0.0 mag 0.0 
0.5375170000 0.4733500000 0.0445780000 1 1 1 v 0.0 0.0 0.0 mag 0.0 
0.7902790000 0.4734810000 0.0443130000 1 1 1 v 0.0 0.0 0.0 mag 0.0 
0.0356010000 0.4735020000 0.2895260000 1 1 1 v 0.0 0.0 0.0 mag 0.0 
0.2854560000 0.4773310000 0.2876110000 1 1 1 v 0.0 0.0 0.0 mag 0.0 
0.5380170000 0.4733510000 0.2922240000 1 1 1 v 0.0 0.0 0.0 mag 0.0 
0.7874910000 0.4739620000 0.2924620000 1 1 1 v 0.0 0.0 0.0 mag 0.0 
0.0353360000 0.4733380000 0.5423760000 1 1 1 v 0.0 0.0 0.0 mag 0.0 
0.2798920000 0.4770470000 0.5422330000 1 1 1 v 0.0 0.0 0.0 mag 0.0 
0.5396810000 0.4867230000 0.5396180000 1 1 1 v 0.0 0.0 0.0 mag 0.0 
0.7874220000 0.4733320000 0.5417770000 1 1 1 v 0.0 0.0 0.0 mag 0.0 
0.0377160000 0.4734810000 0.7919080000 1 1 1 v 0.0 0.0 0.0 mag 0.0 
0.2862710000 0.4734720000 0.7936200000 1 1 1 v 0.0 0.0 0.0 mag 0.0 
0.5375730000 0.4769590000 0.8000500000 1 1 1 v 0.0 0.0 0.0 mag 0.0 
0.7920540000 0.4776040000 0.7943510000 1 1 1 v 0.0 0.0 0.0 mag 0.0 

