ATOMIC_SPECIES
H   1.008         H_ONCV_PBE-1.0.upf
Au  196.966569    Au_ONCV_PBE-1.0.upf

NUMERICAL_ORBITAL
H_gga_6au_100Ry_2s1p.orb
Au_gga_7au_100Ry_4s2p2d1f.orb

LATTICE_CONSTANT
1.8897261258369282 

LATTICE_VECTORS
11.535200000      0.0000000000      0.0000000000      
0.0000000000      19.063800000      0.0000000000      
-5.767600000      0.0000000000      9.9897700000      

ATOMIC_POSITIONS
Direct

H
0.0000000000
2
0.5030700000 0.5750070000 0.6454130000 1 1 1 v 0.0 0.0 0.0 mag 0.0 
0.4370600000 0.5750700000 0.5787680000 1 1 1 v 0.0 0.0 0.0 mag 0.0 

Au
0.0000000000
64
0.0400000000 0.1000000000 0.0400000000 0 0 0 v 0.0 0.0 0.0 mag 0.0 
0.2900000000 0.1000000000 0.0400000000 0 0 0 v 0.0 0.0 0.0 mag 0.0 
0.5400000000 0.1000000000 0.0400000000 0 0 0 v 0.0 0.0 0.0 mag 0.0 
0.7900000000 0.1000000000 0.0400000000 0 0 0 v 0.0 0.0 0.0 mag 0.0 
0.0400000000 0.1000000000 0.2900000000 0 0 0 v 0.0 0.0 0.0 mag 0.0 
0.2900000000 0.1000000000 0.2900000000 0 0 0 v 0.0 0.0 0.0 mag 0.0 
0.5400000000 0.1000000000 0.2900000000 0 0 0 v 0.0 0.0 0.0 mag 0.0 
0.7900000000 0.1000000000 0.2900000000 0 0 0 v 0.0 0.0 0.0 mag 0.0 
0.0400000000 0.1000000000 0.5400000000 0 0 0 v 0.0 0.0 0.0 mag 0.0 
0.2900000000 0.1000000000 0.5400000000 0 0 0 v 0.0 0.0 0.0 mag 0.0 
0.5400000000 0.1000000000 0.5400000000 0 0 0 v 0.0 0.0 0.0 mag 0.0 
0.7900000000 0.1000000000 0.5400000000 0 0 0 v 0.0 0.0 0.0 mag 0.0 
0.0400000000 0.1000000000 0.7900000000 0 0 0 v 0.0 0.0 0.0 mag 0.0 
0.2900000000 0.1000000000 0.7900000000 0 0 0 v 0.0 0.0 0.0 mag 0.0 
0.5400000000 0.1000000000 0.7900000000 0 0 0 v 0.0 0.0 0.0 mag 0.0 
0.7900000000 0.1000000000 0.7900000000 0 0 0 v 0.0 0.0 0.0 mag 0.0 
0.1233330000 0.2235120000 0.2066670000 0 0 0 v 0.0 0.0 0.0 mag 0.0 
0.3733330000 0.2235120000 0.2066670000 0 0 0 v 0.0 0.0 0.0 mag 0.0 
0.6233330000 0.2235120000 0.2066670000 0 0 0 v 0.0 0.0 0.0 mag 0.0 
0.8733330000 0.2235120000 0.2066670000 0 0 0 v 0.0 0.0 0.0 mag 0.0 
0.1233330000 0.2235120000 0.4566670000 0 0 0 v 0.0 0.0 0.0 mag 0.0 
0.3733330000 0.2235120000 0.4566670000 0 0 0 v 0.0 0.0 0.0 mag 0.0 
0.6233330000 0.2235120000 0.4566670000 0 0 0 v 0.0 0.0 0.0 mag 0.0 
0.8733330000 0.2235120000 0.4566670000 0 0 0 v 0.0 0.0 0.0 mag 0.0 
0.1233330000 0.2235120000 0.7066670000 0 0 0 v 0.0 0.0 0.0 mag 0.0 
0.3733330000 0.2235120000 0.7066670000 0 0 0 v 0.0 0.0 0.0 mag 0.0 
0.6233330000 0.2235120000 0.7066670000 0 0 0 v 0.0 0.0 0.0 mag 0.0 
0.8733330000 0.2235120000 0.7066670000 0 0 0 v 0.0 0.0 0.0 mag 0.0 
0.1233330000 0.2235120000 0.9566670000 0 0 0 v 0.0 0.0 0.0 mag 0.0 
0.3733330000 0.2235120000 0.9566670000 0 0 0 v 0.0 0.0 0.0 mag 0.0 
0.6233330000 0.2235120000 0.9566670000 0 0 0 v 0.0 0.0 0.0 mag 0.0 
0.8733330000 0.2235120000 0.9566670000 0 0 0 v 0.0 0.0 0.0 mag 0.0 
0.2061090000 0.3472190000 0.1213180000 1 1 1 v 0.0 0.0 0.0 mag 0.0 
0.4577670000 0.3473830000 0.1235980000 1 1 1 v 0.0 0.0 0.0 mag 0.0 
0.7066610000 0.3475370000 0.1234720000 1 1 1 v 0.0 0.0 0.0 mag 0.0 
0.9562860000 0.3476150000 0.1238840000 1 1 1 v 0.0 0.0 0.0 mag 0.0 
0.2054020000 0.3463980000 0.3705250000 1 1 1 v 0.0 0.0 0.0 mag 0.0 
0.4550160000 0.3465760000 0.3713100000 1 1 1 v 0.0 0.0 0.0 mag 0.0 
0.7063930000 0.3473210000 0.3737280000 1 1 1 v 0.0 0.0 0.0 mag 0.0 
0.9566920000 0.3475470000 0.3734860000 1 1 1 v 0.0 0.0 0.0 mag 0.0 
0.2062870000 0.3464640000 0.6242250000 1 1 1 v 0.0 0.0 0.0 mag 0.0 
0.4567280000 0.3465020000 0.6234500000 1 1 1 v 0.0 0.0 0.0 mag 0.0 
0.7088140000 0.3465840000 0.6251000000 1 1 1 v 0.0 0.0 0.0 mag 0.0 
0.9565350000 0.3473820000 0.6223490000 1 1 1 v 0.0 0.0 0.0 mag 0.0 
0.2066210000 0.3473970000 0.8735060000 1 1 1 v 0.0 0.0 0.0 mag 0.0 
0.4559370000 0.3464550000 0.8738900000 1 1 1 v 0.0 0.0 0.0 mag 0.0 
0.7096280000 0.3463880000 0.8747590000 1 1 1 v 0.0 0.0 0.0 mag 0.0 
0.9588200000 0.3472010000 0.8740290000 1 1 1 v 0.0 0.0 0.0 mag 0.0 
0.0409950000 0.4753690000 0.0392970000 1 1 1 v 0.0 0.0 0.0 mag 0.0 
0.2901470000 0.4751240000 0.0388380000 1 1 1 v 0.0 0.0 0.0 mag 0.0 
0.5403810000 0.4753500000 0.0419470000 1 1 1 v 0.0 0.0 0.0 mag 0.0 
0.7925700000 0.4756150000 0.0420650000 1 1 1 v 0.0 0.0 0.0 mag 0.0 
0.0382270000 0.4756350000 0.2877350000 1 1 1 v 0.0 0.0 0.0 mag 0.0 
0.2891150000 0.4739860000 0.2884160000 1 1 1 v 0.0 0.0 0.0 mag 0.0 
0.5395940000 0.4751310000 0.2883730000 1 1 1 v 0.0 0.0 0.0 mag 0.0 
0.7899320000 0.4745850000 0.2903830000 1 1 1 v 0.0 0.0 0.0 mag 0.0 
0.0383800000 0.4753290000 0.5399200000 1 1 1 v 0.0 0.0 0.0 mag 0.0 
0.2827210000 0.4689630000 0.5355110000 1 1 1 v 0.0 0.0 0.0 mag 0.0 
0.5433710000 0.4684940000 0.5367360000 1 1 1 v 0.0 0.0 0.0 mag 0.0 
0.7918750000 0.4751190000 0.5406780000 1 1 1 v 0.0 0.0 0.0 mag 0.0 
0.0414340000 0.4751210000 0.7901220000 1 1 1 v 0.0 0.0 0.0 mag 0.0 
0.2912270000 0.4743820000 0.7890610000 1 1 1 v 0.0 0.0 0.0 mag 0.0 
0.5447830000 0.4689370000 0.7976360000 1 1 1 v 0.0 0.0 0.0 mag 0.0 
0.7918570000 0.4739330000 0.7911290000 1 1 1 v 0.0 0.0 0.0 mag 0.0 

