ATOMIC_SPECIES
C   12.011        C_ONCV_PBE-1.0.upf
Pt  195.084       Pt_ONCV_PBE-1.0.upf
H   1.008         H_ONCV_PBE-1.0.upf

NUMERICAL_ORBITAL
C_gga_7au_100Ry_2s2p1d.orb
Pt_gga_7au_100Ry_4s2p2d1f.orb
H_gga_6au_100Ry_2s1p.orb

LATTICE_CONSTANT
1.8897261258369282 

LATTICE_VECTORS
12.322700000      0.0000000000      0.0000000000      
0.0000000000      20.000000000      0.0000000000      
-6.161540000      0.0000000000      10.671500000      

ATOMIC_POSITIONS
Direct

C
0.0000000000
54
0.0246120000 0.5029310000 0.0258770000 1 1 1 v 0.0 0.0 0.0 mag 0.0 
0.1583040000 0.5014360000 0.0944820000 1 1 1 v 0.0 0.0 0.0 mag 0.0 
0.2270610000 0.5020310000 0.0303470000 1 1 1 v 0.0 0.0 0.0 mag 0.0 
0.3609710000 0.5030650000 0.0989010000 1 1 1 v 0.0 0.0 0.0 mag 0.0 
0.4263080000 0.5013390000 0.0303290000 1 1 1 v 0.0 0.0 0.0 mag 0.0 
0.5590430000 0.5024130000 0.0946580000 1 1 1 v 0.0 0.0 0.0 mag 0.0 
0.6240170000 0.5014300000 0.0258920000 1 1 1 v 0.0 0.0 0.0 mag 0.0 
0.7567970000 0.5018160000 0.0901490000 1 1 1 v 0.0 0.0 0.0 mag 0.0 
0.8221160000 0.5035430000 0.0216590000 1 1 1 v 0.0 0.0 0.0 mag 0.0 
0.9560330000 0.5018360000 0.0901660000 1 1 1 v 0.0 0.0 0.0 mag 0.0 
0.0220580000 0.4974590000 0.2235180000 1 1 1 v 0.0 0.0 0.0 mag 0.0 
0.1546020000 0.4954730000 0.2912960000 1 1 1 v 0.0 0.0 0.0 mag 0.0 
0.2237040000 0.4994490000 0.2276410000 1 1 1 v 0.0 0.0 0.0 mag 0.0 
0.3573710000 0.5036000000 0.2978840000 1 1 1 v 0.0 0.0 0.0 mag 0.0 
0.4274950000 0.5061140000 0.2326780000 1 1 1 v 0.0 0.0 0.0 mag 0.0 
0.5626940000 0.5081130000 0.2982750000 1 1 1 v 0.0 0.0 0.0 mag 0.0 
0.6264540000 0.5048100000 0.2281330000 1 1 1 v 0.0 0.0 0.0 mag 0.0 
0.7594430000 0.5027340000 0.2919500000 1 1 1 v 0.0 0.0 0.0 mag 0.0 
0.8239640000 0.5002510000 0.2238870000 1 1 1 v 0.0 0.0 0.0 mag 0.0 
0.9566410000 0.4967740000 0.2909930000 1 1 1 v 0.0 0.0 0.0 mag 0.0 
0.0236050000 0.4941020000 0.4250780000 1 1 1 v 0.0 0.0 0.0 mag 0.0 
0.1548520000 0.4905100000 0.4931330000 1 1 1 v 0.0 0.0 0.0 mag 0.0 
0.2181220000 0.4911930000 0.4244750000 1 1 1 v 0.0 0.0 0.0 mag 0.0 
0.3479450000 0.4945560000 0.4920100000 1 1 1 v 0.0 0.0 0.0 mag 0.0 
0.4157150000 0.5060810000 0.4299680000 1 1 1 v 0.0 0.0 0.0 mag 0.0 
0.6363060000 0.5144520000 0.4305140000 1 1 1 v 0.0 0.0 0.0 mag 0.0 
0.7676700000 0.5096520000 0.4932080000 1 1 1 v 0.0 0.0 0.0 mag 0.0 
0.8293510000 0.5031230000 0.4253630000 1 1 1 v 0.0 0.0 0.0 mag 0.0 
0.9608830000 0.4979070000 0.4934730000 1 1 1 v 0.0 0.0 0.0 mag 0.0 
0.0279040000 0.4980670000 0.6273320000 1 1 1 v 0.0 0.0 0.0 mag 0.0 
0.1591240000 0.4945620000 0.6954040000 1 1 1 v 0.0 0.0 0.0 mag 0.0 
0.2219500000 0.4908850000 0.6270470000 1 1 1 v 0.0 0.0 0.0 mag 0.0 
0.3540490000 0.4916010000 0.6953450000 1 1 1 v 0.0 0.0 0.0 mag 0.0 
0.4159050000 0.4938580000 0.6272660000 1 1 1 v 0.0 0.0 0.0 mag 0.0 
0.5464720000 0.5036330000 0.6895110000 1 1 1 v 0.0 0.0 0.0 mag 0.0 
0.7670120000 0.5175600000 0.6911950000 1 1 1 v 0.0 0.0 0.0 mag 0.0 
0.8354740000 0.5108320000 0.6284940000 1 1 1 v 0.0 0.0 0.0 mag 0.0 
0.9648070000 0.5036990000 0.6957330000 1 1 1 v 0.0 0.0 0.0 mag 0.0 
0.0283710000 0.5038700000 0.8289700000 1 1 1 v 0.0 0.0 0.0 mag 0.0 
0.1609210000 0.5009930000 0.8968090000 1 1 1 v 0.0 0.0 0.0 mag 0.0 
0.2262520000 0.4972690000 0.8294600000 1 1 1 v 0.0 0.0 0.0 mag 0.0 
0.3592260000 0.4975040000 0.8967480000 1 1 1 v 0.0 0.0 0.0 mag 0.0 
0.4237760000 0.4956420000 0.8287040000 1 1 1 v 0.0 0.0 0.0 mag 0.0 
0.5567370000 0.4994460000 0.8924460000 1 1 1 v 0.0 0.0 0.0 mag 0.0 
0.6205320000 0.5026050000 0.8223160000 1 1 1 v 0.0 0.0 0.0 mag 0.0 
0.7554170000 0.5068010000 0.8878610000 1 1 1 v 0.0 0.0 0.0 mag 0.0 
0.8256110000 0.5104120000 0.8226900000 1 1 1 v 0.0 0.0 0.0 mag 0.0 
0.9592610000 0.5061440000 0.8927500000 1 1 1 v 0.0 0.0 0.0 mag 0.0 
0.6165410000 0.6745070000 0.5635030000 1 1 1 v 0.0 0.0 0.0 mag 0.0 
0.7547920000 0.6902910000 0.6487850000 1 1 1 v 0.0 0.0 0.0 mag 0.0 
0.7650950000 0.7647850000 0.6800890000 1 1 1 v 0.0 0.0 0.0 mag 0.0 
0.6858190000 0.7833350000 0.7400320000 1 1 1 v 0.0 0.0 0.0 mag 0.0 
0.5499410000 0.7584910000 0.6647590000 1 1 1 v 0.0 0.0 0.0 mag 0.0 
0.5448770000 0.6842170000 0.6335870000 1 1 1 v 0.0 0.0 0.0 mag 0.0 

Pt
0.0000000000
1
0.5892420000 0.5254790000 0.5604810000 1 1 1 v 0.0 0.0 0.0 mag 0.0 

H
0.0000000000
12
0.5001030000 0.7686790000 0.7161040000 1 1 1 v 0.0 0.0 0.0 mag 0.0 
0.5773220000 0.7076950000 0.4812150000 1 1 1 v 0.0 0.0 0.0 mag 0.0 
0.8105130000 0.6769120000 0.6048080000 1 1 1 v 0.0 0.0 0.0 mag 0.0 
0.7920880000 0.6601800000 0.7351410000 1 1 1 v 0.0 0.0 0.0 mag 0.0 
0.8631320000 0.7796470000 0.7417210000 1 1 1 v 0.0 0.0 0.0 mag 0.0 
0.7311820000 0.7927150000 0.5918490000 1 1 1 v 0.0 0.0 0.0 mag 0.0 
0.6868080000 0.8378130000 0.7519640000 1 1 1 v 0.0 0.0 0.0 mag 0.0 
0.7295890000 0.7614020000 0.8346530000 1 1 1 v 0.0 0.0 0.0 mag 0.0 
0.5000660000 0.7860840000 0.5755760000 1 1 1 v 0.0 0.0 0.0 mag 0.0 
0.4477820000 0.6662750000 0.5786120000 1 1 1 v 0.0 0.0 0.0 mag 0.0 
0.5893680000 0.6544270000 0.7206370000 1 1 1 v 0.0 0.0 0.0 mag 0.0 
0.6027330000 0.6237400000 0.5218480000 1 1 1 v 0.0 0.0 0.0 mag 0.0 

