ATOMIC_SPECIES
C   12.011        C_ONCV_PBE-1.0.upf
Pt  195.084       Pt_ONCV_PBE-1.0.upf
H   1.008         H_ONCV_PBE-1.0.upf

NUMERICAL_ORBITAL
C_gga_7au_100Ry_2s2p1d.orb
Pt_gga_7au_100Ry_4s2p2d1f.orb
H_gga_6au_100Ry_2s1p.orb

LATTICE_CONSTANT
1.8897261258369282 

LATTICE_VECTORS
12.322700000      0.0000000000      0.0000000000      
0.0000000000      20.000000000      0.0000000000      
-6.161540000      0.0000000000      10.671500000      

ATOMIC_POSITIONS
Direct

C
0.0000000000
54
0.0302170000 0.5010980000 0.0285890000 1 1 1 v 0.0 0.0 0.0 mag 0.0 
0.1642990000 0.4993070000 0.0974190000 1 1 1 v 0.0 0.0 0.0 mag 0.0 
0.2320180000 0.4984900000 0.0321240000 1 1 1 v 0.0 0.0 0.0 mag 0.0 
0.3658700000 0.5006520000 0.1003870000 1 1 1 v 0.0 0.0 0.0 mag 0.0 
0.4309550000 0.4961760000 0.0319150000 1 1 1 v 0.0 0.0 0.0 mag 0.0 
0.5640520000 0.4959520000 0.0962590000 1 1 1 v 0.0 0.0 0.0 mag 0.0 
0.6296420000 0.4948050000 0.0283210000 1 1 1 v 0.0 0.0 0.0 mag 0.0 
0.7627430000 0.4959030000 0.0929680000 1 1 1 v 0.0 0.0 0.0 mag 0.0 
0.8281050000 0.5006350000 0.0245140000 1 1 1 v 0.0 0.0 0.0 mag 0.0 
0.9623070000 0.4985550000 0.0934780000 1 1 1 v 0.0 0.0 0.0 mag 0.0 
0.0287690000 0.4924030000 0.2266820000 1 1 1 v 0.0 0.0 0.0 mag 0.0 
0.1623110000 0.4922110000 0.2950490000 1 1 1 v 0.0 0.0 0.0 mag 0.0 
0.2314890000 0.4978910000 0.2313470000 1 1 1 v 0.0 0.0 0.0 mag 0.0 
0.3664470000 0.5038340000 0.3019950000 1 1 1 v 0.0 0.0 0.0 mag 0.0 
0.4332940000 0.5084980000 0.2335210000 1 1 1 v 0.0 0.0 0.0 mag 0.0 
0.5673470000 0.5141640000 0.2960590000 1 1 1 v 0.0 0.0 0.0 mag 0.0 
0.6319000000 0.5011670000 0.2291780000 1 1 1 v 0.0 0.0 0.0 mag 0.0 
0.7649030000 0.4970410000 0.2942470000 1 1 1 v 0.0 0.0 0.0 mag 0.0 
0.8299720000 0.4931250000 0.2264620000 1 1 1 v 0.0 0.0 0.0 mag 0.0 
0.9629770000 0.4897210000 0.2939240000 1 1 1 v 0.0 0.0 0.0 mag 0.0 
0.0292730000 0.4860580000 0.4280020000 1 1 1 v 0.0 0.0 0.0 mag 0.0 
0.1613640000 0.4845070000 0.4960250000 1 1 1 v 0.0 0.0 0.0 mag 0.0 
0.2261650000 0.4884800000 0.4283740000 1 1 1 v 0.0 0.0 0.0 mag 0.0 
0.3573700000 0.4933800000 0.4957990000 1 1 1 v 0.0 0.0 0.0 mag 0.0 
0.4268810000 0.5026910000 0.4350740000 1 1 1 v 0.0 0.0 0.0 mag 0.0 
0.6436170000 0.5325320000 0.4245280000 1 1 1 v 0.0 0.0 0.0 mag 0.0 
0.7726580000 0.5169470000 0.4939780000 1 1 1 v 0.0 0.0 0.0 mag 0.0 
0.8335300000 0.4985130000 0.4278560000 1 1 1 v 0.0 0.0 0.0 mag 0.0 
0.9648320000 0.4899510000 0.4958510000 1 1 1 v 0.0 0.0 0.0 mag 0.0 
0.0315480000 0.4917410000 0.6298340000 1 1 1 v 0.0 0.0 0.0 mag 0.0 
0.1634130000 0.4867350000 0.6978290000 1 1 1 v 0.0 0.0 0.0 mag 0.0 
0.2277410000 0.4835790000 0.6302800000 1 1 1 v 0.0 0.0 0.0 mag 0.0 
0.3599140000 0.4864300000 0.6985000000 1 1 1 v 0.0 0.0 0.0 mag 0.0 
0.4234560000 0.4938650000 0.6316830000 1 1 1 v 0.0 0.0 0.0 mag 0.0 
0.5509490000 0.5084630000 0.6946010000 1 1 1 v 0.0 0.0 0.0 mag 0.0 
0.7728970000 0.5265500000 0.6938780000 1 1 1 v 0.0 0.0 0.0 mag 0.0 
0.8385690000 0.5168480000 0.6292820000 1 1 1 v 0.0 0.0 0.0 mag 0.0 
0.9680010000 0.5024350000 0.6970450000 1 1 1 v 0.0 0.0 0.0 mag 0.0 
0.0322060000 0.5015640000 0.8304000000 1 1 1 v 0.0 0.0 0.0 mag 0.0 
0.1651750000 0.4959450000 0.8986940000 1 1 1 v 0.0 0.0 0.0 mag 0.0 
0.2306770000 0.4903980000 0.8316870000 1 1 1 v 0.0 0.0 0.0 mag 0.0 
0.3636370000 0.4907890000 0.8991110000 1 1 1 v 0.0 0.0 0.0 mag 0.0 
0.4290850000 0.4896040000 0.8314190000 1 1 1 v 0.0 0.0 0.0 mag 0.0 
0.5619120000 0.4948350000 0.8951150000 1 1 1 v 0.0 0.0 0.0 mag 0.0 
0.6257310000 0.5042730000 0.8255960000 1 1 1 v 0.0 0.0 0.0 mag 0.0 
0.7610870000 0.5084580000 0.8913630000 1 1 1 v 0.0 0.0 0.0 mag 0.0 
0.8295870000 0.5141880000 0.8251800000 1 1 1 v 0.0 0.0 0.0 mag 0.0 
0.9636280000 0.5059720000 0.8946940000 1 1 1 v 0.0 0.0 0.0 mag 0.0 
0.6289820000 0.6453950000 0.6354600000 1 1 1 v 0.0 0.0 0.0 mag 0.0 
0.7600620000 0.6746290000 0.7005830000 1 1 1 v 0.0 0.0 0.0 mag 0.0 
0.7535660000 0.7513560000 0.7073420000 1 1 1 v 0.0 0.0 0.0 mag 0.0 
0.6791420000 0.7724760000 0.7703720000 1 1 1 v 0.0 0.0 0.0 mag 0.0 
0.5483510000 0.7414010000 0.7041590000 1 1 1 v 0.0 0.0 0.0 mag 0.0 
0.5553990000 0.6645160000 0.6993440000 1 1 1 v 0.0 0.0 0.0 mag 0.0 

Pt
0.0000000000
1
0.5931770000 0.5432310000 0.5697020000 1 1 1 v 0.0 0.0 0.0 mag 0.0 

H
0.0000000000
12
0.4956720000 0.7552500000 0.7510900000 1 1 1 v 0.0 0.0 0.0 mag 0.0 
0.5782350000 0.6653490000 0.5386020000 1 1 1 v 0.0 0.0 0.0 mag 0.0 
0.8104310000 0.6608410000 0.6513480000 1 1 1 v 0.0 0.0 0.0 mag 0.0 
0.8141730000 0.6543610000 0.7960410000 1 1 1 v 0.0 0.0 0.0 mag 0.0 
0.8490760000 0.7718920000 0.7575100000 1 1 1 v 0.0 0.0 0.0 mag 0.0 
0.7086340000 0.7721750000 0.6117310000 1 1 1 v 0.0 0.0 0.0 mag 0.0 
0.6725900000 0.8272830000 0.7714460000 1 1 1 v 0.0 0.0 0.0 mag 0.0 
0.7293190000 0.7561290000 0.8689590000 1 1 1 v 0.0 0.0 0.0 mag 0.0 
0.4950370000 0.7611000000 0.6078570000 1 1 1 v 0.0 0.0 0.0 mag 0.0 
0.4601860000 0.6436980000 0.6490780000 1 1 1 v 0.0 0.0 0.0 mag 0.0 
0.6011530000 0.6444720000 0.7951570000 1 1 1 v 0.0 0.0 0.0 mag 0.0 
0.6168870000 0.5834230000 0.4480640000 1 1 1 v 0.0 0.0 0.0 mag 0.0 

