ATOMIC_SPECIES
H   1.008         H_ONCV_PBE-1.0.upf
Au  196.966569    Au_ONCV_PBE-1.0.upf

NUMERICAL_ORBITAL
H_gga_6au_100Ry_2s1p.orb
Au_gga_7au_100Ry_4s2p2d1f.orb

LATTICE_CONSTANT
1.8897261258369282 

LATTICE_VECTORS
11.535200000      0.0000000000      0.0000000000      
0.0000000000      19.063800000      0.0000000000      
-5.767600000      0.0000000000      9.9897700000      

ATOMIC_POSITIONS
Direct

H
0.0000000000
2
0.4966240000 0.6138060000 0.6508410000 1 1 1 v 0.0 0.0 0.0 mag 0.0 
0.4317380000 0.6181940000 0.5860080000 1 1 1 v 0.0 0.0 0.0 mag 0.0 

Au
0.0000000000
64
0.0400000000 0.1000000000 0.0400000000 0 0 0 v 0.0 0.0 0.0 mag 0.0 
0.2900000000 0.1000000000 0.0400000000 0 0 0 v 0.0 0.0 0.0 mag 0.0 
0.5400000000 0.1000000000 0.0400000000 0 0 0 v 0.0 0.0 0.0 mag 0.0 
0.7900000000 0.1000000000 0.0400000000 0 0 0 v 0.0 0.0 0.0 mag 0.0 
0.0400000000 0.1000000000 0.2900000000 0 0 0 v 0.0 0.0 0.0 mag 0.0 
0.2900000000 0.1000000000 0.2900000000 0 0 0 v 0.0 0.0 0.0 mag 0.0 
0.5400000000 0.1000000000 0.2900000000 0 0 0 v 0.0 0.0 0.0 mag 0.0 
0.7900000000 0.1000000000 0.2900000000 0 0 0 v 0.0 0.0 0.0 mag 0.0 
0.0400000000 0.1000000000 0.5400000000 0 0 0 v 0.0 0.0 0.0 mag 0.0 
0.2900000000 0.1000000000 0.5400000000 0 0 0 v 0.0 0.0 0.0 mag 0.0 
0.5400000000 0.1000000000 0.5400000000 0 0 0 v 0.0 0.0 0.0 mag 0.0 
0.7900000000 0.1000000000 0.5400000000 0 0 0 v 0.0 0.0 0.0 mag 0.0 
0.0400000000 0.1000000000 0.7900000000 0 0 0 v 0.0 0.0 0.0 mag 0.0 
0.2900000000 0.1000000000 0.7900000000 0 0 0 v 0.0 0.0 0.0 mag 0.0 
0.5400000000 0.1000000000 0.7900000000 0 0 0 v 0.0 0.0 0.0 mag 0.0 
0.7900000000 0.1000000000 0.7900000000 0 0 0 v 0.0 0.0 0.0 mag 0.0 
0.1233330000 0.2235120000 0.2066670000 0 0 0 v 0.0 0.0 0.0 mag 0.0 
0.3733330000 0.2235120000 0.2066670000 0 0 0 v 0.0 0.0 0.0 mag 0.0 
0.6233330000 0.2235120000 0.2066670000 0 0 0 v 0.0 0.0 0.0 mag 0.0 
0.8733330000 0.2235120000 0.2066670000 0 0 0 v 0.0 0.0 0.0 mag 0.0 
0.1233330000 0.2235120000 0.4566670000 0 0 0 v 0.0 0.0 0.0 mag 0.0 
0.3733330000 0.2235120000 0.4566670000 0 0 0 v 0.0 0.0 0.0 mag 0.0 
0.6233330000 0.2235120000 0.4566670000 0 0 0 v 0.0 0.0 0.0 mag 0.0 
0.8733330000 0.2235120000 0.4566670000 0 0 0 v 0.0 0.0 0.0 mag 0.0 
0.1233330000 0.2235120000 0.7066670000 0 0 0 v 0.0 0.0 0.0 mag 0.0 
0.3733330000 0.2235120000 0.7066670000 0 0 0 v 0.0 0.0 0.0 mag 0.0 
0.6233330000 0.2235120000 0.7066670000 0 0 0 v 0.0 0.0 0.0 mag 0.0 
0.8733330000 0.2235120000 0.7066670000 0 0 0 v 0.0 0.0 0.0 mag 0.0 
0.1233330000 0.2235120000 0.9566670000 0 0 0 v 0.0 0.0 0.0 mag 0.0 
0.3733330000 0.2235120000 0.9566670000 0 0 0 v 0.0 0.0 0.0 mag 0.0 
0.6233330000 0.2235120000 0.9566670000 0 0 0 v 0.0 0.0 0.0 mag 0.0 
0.8733330000 0.2235120000 0.9566670000 0 0 0 v 0.0 0.0 0.0 mag 0.0 
0.2062880000 0.3475890000 0.1224510000 1 1 1 v 0.0 0.0 0.0 mag 0.0 
0.4572070000 0.3476210000 0.1235090000 1 1 1 v 0.0 0.0 0.0 mag 0.0 
0.7067060000 0.3475680000 0.1233240000 1 1 1 v 0.0 0.0 0.0 mag 0.0 
0.9564780000 0.3476650000 0.1236270000 1 1 1 v 0.0 0.0 0.0 mag 0.0 
0.2060710000 0.3469260000 0.3720960000 1 1 1 v 0.0 0.0 0.0 mag 0.0 
0.4560530000 0.3468920000 0.3720690000 1 1 1 v 0.0 0.0 0.0 mag 0.0 
0.7066610000 0.3475200000 0.3734160000 1 1 1 v 0.0 0.0 0.0 mag 0.0 
0.9567660000 0.3475630000 0.3733740000 1 1 1 v 0.0 0.0 0.0 mag 0.0 
0.2061740000 0.3469480000 0.6238820000 1 1 1 v 0.0 0.0 0.0 mag 0.0 
0.4567230000 0.3463420000 0.6234020000 1 1 1 v 0.0 0.0 0.0 mag 0.0 
0.7080400000 0.3468820000 0.6240650000 1 1 1 v 0.0 0.0 0.0 mag 0.0 
0.9565740000 0.3476200000 0.6228490000 1 1 1 v 0.0 0.0 0.0 mag 0.0 
0.2064280000 0.3476220000 0.8736400000 1 1 1 v 0.0 0.0 0.0 mag 0.0 
0.4562410000 0.3469490000 0.8739600000 1 1 1 v 0.0 0.0 0.0 mag 0.0 
0.7080140000 0.3469180000 0.8740570000 1 1 1 v 0.0 0.0 0.0 mag 0.0 
0.9576170000 0.3475930000 0.8737820000 1 1 1 v 0.0 0.0 0.0 mag 0.0 
0.0402810000 0.4753630000 0.0399640000 1 1 1 v 0.0 0.0 0.0 mag 0.0 
0.2900850000 0.4753100000 0.0399150000 1 1 1 v 0.0 0.0 0.0 mag 0.0 
0.5401840000 0.4751400000 0.0405150000 1 1 1 v 0.0 0.0 0.0 mag 0.0 
0.7906650000 0.4751670000 0.0405250000 1 1 1 v 0.0 0.0 0.0 mag 0.0 
0.0397210000 0.4751560000 0.2895860000 1 1 1 v 0.0 0.0 0.0 mag 0.0 
0.2900930000 0.4744670000 0.2900460000 1 1 1 v 0.0 0.0 0.0 mag 0.0 
0.5400850000 0.4750300000 0.2895870000 1 1 1 v 0.0 0.0 0.0 mag 0.0 
0.7901500000 0.4750040000 0.2901060000 1 1 1 v 0.0 0.0 0.0 mag 0.0 
0.0397410000 0.4751280000 0.5400720000 1 1 1 v 0.0 0.0 0.0 mag 0.0 
0.2886430000 0.4717710000 0.5392430000 1 1 1 v 0.0 0.0 0.0 mag 0.0 
0.5409400000 0.4714320000 0.5393040000 1 1 1 v 0.0 0.0 0.0 mag 0.0 
0.7906660000 0.4750270000 0.5401640000 1 1 1 v 0.0 0.0 0.0 mag 0.0 
0.0403450000 0.4753070000 0.7901840000 1 1 1 v 0.0 0.0 0.0 mag 0.0 
0.2903430000 0.4745690000 0.7899040000 1 1 1 v 0.0 0.0 0.0 mag 0.0 
0.5410100000 0.4717820000 0.7916110000 1 1 1 v 0.0 0.0 0.0 mag 0.0 
0.7901850000 0.4744730000 0.7901360000 1 1 1 v 0.0 0.0 0.0 mag 0.0 

