ATOMIC_SPECIES
H   1.008         H_ONCV_PBE-1.0.upf
Au  196.966569    Au_ONCV_PBE-1.0.upf

NUMERICAL_ORBITAL
H_gga_6au_100Ry_2s1p.orb
Au_gga_7au_100Ry_4s2p2d1f.orb

LATTICE_CONSTANT
1.8897261258369282 

LATTICE_VECTORS
11.535200000      0.0000000000      0.0000000000      
0.0000000000      19.063800000      0.0000000000      
-5.767600000      0.0000000000      9.9897700000      

ATOMIC_POSITIONS
Direct

H
0.0000000000
2
0.5005290000 0.5671420000 0.6469500000 1 1 1 v 0.0 0.0 0.0 mag 0.0 
0.4334350000 0.5670470000 0.5804570000 1 1 1 v 0.0 0.0 0.0 mag 0.0 

Au
0.0000000000
64
0.0400000000 0.1000000000 0.0400000000 0 0 0 v 0.0 0.0 0.0 mag 0.0 
0.2900000000 0.1000000000 0.0400000000 0 0 0 v 0.0 0.0 0.0 mag 0.0 
0.5400000000 0.1000000000 0.0400000000 0 0 0 v 0.0 0.0 0.0 mag 0.0 
0.7900000000 0.1000000000 0.0400000000 0 0 0 v 0.0 0.0 0.0 mag 0.0 
0.0400000000 0.1000000000 0.2900000000 0 0 0 v 0.0 0.0 0.0 mag 0.0 
0.2900000000 0.1000000000 0.2900000000 0 0 0 v 0.0 0.0 0.0 mag 0.0 
0.5400000000 0.1000000000 0.2900000000 0 0 0 v 0.0 0.0 0.0 mag 0.0 
0.7900000000 0.1000000000 0.2900000000 0 0 0 v 0.0 0.0 0.0 mag 0.0 
0.0400000000 0.1000000000 0.5400000000 0 0 0 v 0.0 0.0 0.0 mag 0.0 
0.2900000000 0.1000000000 0.5400000000 0 0 0 v 0.0 0.0 0.0 mag 0.0 
0.5400000000 0.1000000000 0.5400000000 0 0 0 v 0.0 0.0 0.0 mag 0.0 
0.7900000000 0.1000000000 0.5400000000 0 0 0 v 0.0 0.0 0.0 mag 0.0 
0.0400000000 0.1000000000 0.7900000000 0 0 0 v 0.0 0.0 0.0 mag 0.0 
0.2900000000 0.1000000000 0.7900000000 0 0 0 v 0.0 0.0 0.0 mag 0.0 
0.5400000000 0.1000000000 0.7900000000 0 0 0 v 0.0 0.0 0.0 mag 0.0 
0.7900000000 0.1000000000 0.7900000000 0 0 0 v 0.0 0.0 0.0 mag 0.0 
0.1233330000 0.2235120000 0.2066670000 0 0 0 v 0.0 0.0 0.0 mag 0.0 
0.3733330000 0.2235120000 0.2066670000 0 0 0 v 0.0 0.0 0.0 mag 0.0 
0.6233330000 0.2235120000 0.2066670000 0 0 0 v 0.0 0.0 0.0 mag 0.0 
0.8733330000 0.2235120000 0.2066670000 0 0 0 v 0.0 0.0 0.0 mag 0.0 
0.1233330000 0.2235120000 0.4566670000 0 0 0 v 0.0 0.0 0.0 mag 0.0 
0.3733330000 0.2235120000 0.4566670000 0 0 0 v 0.0 0.0 0.0 mag 0.0 
0.6233330000 0.2235120000 0.4566670000 0 0 0 v 0.0 0.0 0.0 mag 0.0 
0.8733330000 0.2235120000 0.4566670000 0 0 0 v 0.0 0.0 0.0 mag 0.0 
0.1233330000 0.2235120000 0.7066670000 0 0 0 v 0.0 0.0 0.0 mag 0.0 
0.3733330000 0.2235120000 0.7066670000 0 0 0 v 0.0 0.0 0.0 mag 0.0 
0.6233330000 0.2235120000 0.7066670000 0 0 0 v 0.0 0.0 0.0 mag 0.0 
0.8733330000 0.2235120000 0.7066670000 0 0 0 v 0.0 0.0 0.0 mag 0.0 
0.1233330000 0.2235120000 0.9566670000 0 0 0 v 0.0 0.0 0.0 mag 0.0 
0.3733330000 0.2235120000 0.9566670000 0 0 0 v 0.0 0.0 0.0 mag 0.0 
0.6233330000 0.2235120000 0.9566670000 0 0 0 v 0.0 0.0 0.0 mag 0.0 
0.8733330000 0.2235120000 0.9566670000 0 0 0 v 0.0 0.0 0.0 mag 0.0 
0.2064030000 0.3470390000 0.1214340000 1 1 1 v 0.0 0.0 0.0 mag 0.0 
0.4579170000 0.3473080000 0.1238900000 1 1 1 v 0.0 0.0 0.0 mag 0.0 
0.7067160000 0.3474680000 0.1235720000 1 1 1 v 0.0 0.0 0.0 mag 0.0 
0.9563980000 0.3474940000 0.1237890000 1 1 1 v 0.0 0.0 0.0 mag 0.0 
0.2055200000 0.3464680000 0.3705770000 1 1 1 v 0.0 0.0 0.0 mag 0.0 
0.4550310000 0.3468800000 0.3719760000 1 1 1 v 0.0 0.0 0.0 mag 0.0 
0.7063000000 0.3472680000 0.3738400000 1 1 1 v 0.0 0.0 0.0 mag 0.0 
0.9565630000 0.3474790000 0.3733970000 1 1 1 v 0.0 0.0 0.0 mag 0.0 
0.2064400000 0.3465530000 0.6241770000 1 1 1 v 0.0 0.0 0.0 mag 0.0 
0.4565710000 0.3472220000 0.6236350000 1 1 1 v 0.0 0.0 0.0 mag 0.0 
0.7082420000 0.3468620000 0.6251660000 1 1 1 v 0.0 0.0 0.0 mag 0.0 
0.9562850000 0.3473250000 0.6222160000 1 1 1 v 0.0 0.0 0.0 mag 0.0 
0.2067120000 0.3472610000 0.8734580000 1 1 1 v 0.0 0.0 0.0 mag 0.0 
0.4559950000 0.3465360000 0.8737550000 1 1 1 v 0.0 0.0 0.0 mag 0.0 
0.7096270000 0.3464380000 0.8746830000 1 1 1 v 0.0 0.0 0.0 mag 0.0 
0.9587870000 0.3470340000 0.8737980000 1 1 1 v 0.0 0.0 0.0 mag 0.0 
0.0411760000 0.4751210000 0.0392050000 1 1 1 v 0.0 0.0 0.0 mag 0.0 
0.2900940000 0.4749700000 0.0387760000 1 1 1 v 0.0 0.0 0.0 mag 0.0 
0.5403100000 0.4753140000 0.0427780000 1 1 1 v 0.0 0.0 0.0 mag 0.0 
0.7931720000 0.4756230000 0.0428070000 1 1 1 v 0.0 0.0 0.0 mag 0.0 
0.0374910000 0.4756410000 0.2871400000 1 1 1 v 0.0 0.0 0.0 mag 0.0 
0.2887550000 0.4740460000 0.2881200000 1 1 1 v 0.0 0.0 0.0 mag 0.0 
0.5393560000 0.4752860000 0.2883510000 1 1 1 v 0.0 0.0 0.0 mag 0.0 
0.7896590000 0.4743920000 0.2905980000 1 1 1 v 0.0 0.0 0.0 mag 0.0 
0.0375270000 0.4753240000 0.5399860000 1 1 1 v 0.0 0.0 0.0 mag 0.0 
0.2800340000 0.4689940000 0.5341410000 1 1 1 v 0.0 0.0 0.0 mag 0.0 
0.5441210000 0.4688290000 0.5362840000 1 1 1 v 0.0 0.0 0.0 mag 0.0 
0.7919870000 0.4752990000 0.5409450000 1 1 1 v 0.0 0.0 0.0 mag 0.0 
0.0416120000 0.4749820000 0.7902630000 1 1 1 v 0.0 0.0 0.0 mag 0.0 
0.2913260000 0.4742380000 0.7890260000 1 1 1 v 0.0 0.0 0.0 mag 0.0 
0.5462090000 0.4689410000 0.8003050000 1 1 1 v 0.0 0.0 0.0 mag 0.0 
0.7922890000 0.4740160000 0.7915990000 1 1 1 v 0.0 0.0 0.0 mag 0.0 

