ATOMIC_SPECIES
H   1.008         H_ONCV_PBE-1.0.upf
Au  196.966569    Au_ONCV_PBE-1.0.upf

NUMERICAL_ORBITAL
H_gga_6au_100Ry_2s1p.orb
Au_gga_7au_100Ry_4s2p2d1f.orb

LATTICE_CONSTANT
1.8897261258369282 

LATTICE_VECTORS
11.535200000      0.0000000000      0.0000000000      
0.0000000000      19.063800000      0.0000000000      
-5.767600000      0.0000000000      9.9897700000      

ATOMIC_POSITIONS
Direct

H
0.0000000000
2
0.6111350000 0.5229330000 0.7109770000 1 1 1 v 0.0 0.0 0.0 mag 0.0 
0.3701110000 0.5234290000 0.4711310000 1 1 1 v 0.0 0.0 0.0 mag 0.0 

Au
0.0000000000
64
0.0400000000 0.1000000000 0.0400000000 0 0 0 v 0.0 0.0 0.0 mag 0.0 
0.2900000000 0.1000000000 0.0400000000 0 0 0 v 0.0 0.0 0.0 mag 0.0 
0.5400000000 0.1000000000 0.0400000000 0 0 0 v 0.0 0.0 0.0 mag 0.0 
0.7900000000 0.1000000000 0.0400000000 0 0 0 v 0.0 0.0 0.0 mag 0.0 
0.0400000000 0.1000000000 0.2900000000 0 0 0 v 0.0 0.0 0.0 mag 0.0 
0.2900000000 0.1000000000 0.2900000000 0 0 0 v 0.0 0.0 0.0 mag 0.0 
0.5400000000 0.1000000000 0.2900000000 0 0 0 v 0.0 0.0 0.0 mag 0.0 
0.7900000000 0.1000000000 0.2900000000 0 0 0 v 0.0 0.0 0.0 mag 0.0 
0.0400000000 0.1000000000 0.5400000000 0 0 0 v 0.0 0.0 0.0 mag 0.0 
0.2900000000 0.1000000000 0.5400000000 0 0 0 v 0.0 0.0 0.0 mag 0.0 
0.5400000000 0.1000000000 0.5400000000 0 0 0 v 0.0 0.0 0.0 mag 0.0 
0.7900000000 0.1000000000 0.5400000000 0 0 0 v 0.0 0.0 0.0 mag 0.0 
0.0400000000 0.1000000000 0.7900000000 0 0 0 v 0.0 0.0 0.0 mag 0.0 
0.2900000000 0.1000000000 0.7900000000 0 0 0 v 0.0 0.0 0.0 mag 0.0 
0.5400000000 0.1000000000 0.7900000000 0 0 0 v 0.0 0.0 0.0 mag 0.0 
0.7900000000 0.1000000000 0.7900000000 0 0 0 v 0.0 0.0 0.0 mag 0.0 
0.1233330000 0.2235120000 0.2066670000 0 0 0 v 0.0 0.0 0.0 mag 0.0 
0.3733330000 0.2235120000 0.2066670000 0 0 0 v 0.0 0.0 0.0 mag 0.0 
0.6233330000 0.2235120000 0.2066670000 0 0 0 v 0.0 0.0 0.0 mag 0.0 
0.8733330000 0.2235120000 0.2066670000 0 0 0 v 0.0 0.0 0.0 mag 0.0 
0.1233330000 0.2235120000 0.4566670000 0 0 0 v 0.0 0.0 0.0 mag 0.0 
0.3733330000 0.2235120000 0.4566670000 0 0 0 v 0.0 0.0 0.0 mag 0.0 
0.6233330000 0.2235120000 0.4566670000 0 0 0 v 0.0 0.0 0.0 mag 0.0 
0.8733330000 0.2235120000 0.4566670000 0 0 0 v 0.0 0.0 0.0 mag 0.0 
0.1233330000 0.2235120000 0.7066670000 0 0 0 v 0.0 0.0 0.0 mag 0.0 
0.3733330000 0.2235120000 0.7066670000 0 0 0 v 0.0 0.0 0.0 mag 0.0 
0.6233330000 0.2235120000 0.7066670000 0 0 0 v 0.0 0.0 0.0 mag 0.0 
0.8733330000 0.2235120000 0.7066670000 0 0 0 v 0.0 0.0 0.0 mag 0.0 
0.1233330000 0.2235120000 0.9566670000 0 0 0 v 0.0 0.0 0.0 mag 0.0 
0.3733330000 0.2235120000 0.9566670000 0 0 0 v 0.0 0.0 0.0 mag 0.0 
0.6233330000 0.2235120000 0.9566670000 0 0 0 v 0.0 0.0 0.0 mag 0.0 
0.8733330000 0.2235120000 0.9566670000 0 0 0 v 0.0 0.0 0.0 mag 0.0 
0.2086080000 0.3471910000 0.1266790000 1 1 1 v 0.0 0.0 0.0 mag 0.0 
0.4554980000 0.3461860000 0.1241470000 1 1 1 v 0.0 0.0 0.0 mag 0.0 
0.7059370000 0.3469410000 0.1240360000 1 1 1 v 0.0 0.0 0.0 mag 0.0 
0.9567340000 0.3468620000 0.1233210000 1 1 1 v 0.0 0.0 0.0 mag 0.0 
0.2062440000 0.3476640000 0.3734860000 1 1 1 v 0.0 0.0 0.0 mag 0.0 
0.4569960000 0.3492960000 0.3782950000 1 1 1 v 0.0 0.0 0.0 mag 0.0 
0.7060530000 0.3468420000 0.3741170000 1 1 1 v 0.0 0.0 0.0 mag 0.0 
0.9561310000 0.3469460000 0.3742230000 1 1 1 v 0.0 0.0 0.0 mag 0.0 
0.2073140000 0.3478840000 0.6230040000 1 1 1 v 0.0 0.0 0.0 mag 0.0 
0.4559980000 0.3488110000 0.6240740000 1 1 1 v 0.0 0.0 0.0 mag 0.0 
0.7017750000 0.3493340000 0.6231310000 1 1 1 v 0.0 0.0 0.0 mag 0.0 
0.9559710000 0.3461980000 0.6246580000 1 1 1 v 0.0 0.0 0.0 mag 0.0 
0.2057010000 0.3457110000 0.8744040000 1 1 1 v 0.0 0.0 0.0 mag 0.0 
0.4570620000 0.3478460000 0.8728010000 1 1 1 v 0.0 0.0 0.0 mag 0.0 
0.7065790000 0.3476640000 0.8738300000 1 1 1 v 0.0 0.0 0.0 mag 0.0 
0.9533580000 0.3472420000 0.8714590000 1 1 1 v 0.0 0.0 0.0 mag 0.0 
0.0396240000 0.4736040000 0.0405670000 1 1 1 v 0.0 0.0 0.0 mag 0.0 
0.2884300000 0.4731050000 0.0417640000 1 1 1 v 0.0 0.0 0.0 mag 0.0 
0.5380590000 0.4729770000 0.0440770000 1 1 1 v 0.0 0.0 0.0 mag 0.0 
0.7906660000 0.4729240000 0.0438090000 1 1 1 v 0.0 0.0 0.0 mag 0.0 
0.0364340000 0.4729440000 0.2894940000 1 1 1 v 0.0 0.0 0.0 mag 0.0 
0.2861750000 0.4777580000 0.2874130000 1 1 1 v 0.0 0.0 0.0 mag 0.0 
0.5388140000 0.4729530000 0.2916190000 1 1 1 v 0.0 0.0 0.0 mag 0.0 
0.7882690000 0.4736350000 0.2920020000 1 1 1 v 0.0 0.0 0.0 mag 0.0 
0.0361660000 0.4729670000 0.5421640000 1 1 1 v 0.0 0.0 0.0 mag 0.0 
0.2814410000 0.4767100000 0.5429260000 1 1 1 v 0.0 0.0 0.0 mag 0.0 
0.5408230000 0.4862760000 0.5390620000 1 1 1 v 0.0 0.0 0.0 mag 0.0 
0.7884380000 0.4729370000 0.5413380000 1 1 1 v 0.0 0.0 0.0 mag 0.0 
0.0383950000 0.4731140000 0.7917320000 1 1 1 v 0.0 0.0 0.0 mag 0.0 
0.2868290000 0.4730510000 0.7934100000 1 1 1 v 0.0 0.0 0.0 mag 0.0 
0.5372800000 0.4766230000 0.7988200000 1 1 1 v 0.0 0.0 0.0 mag 0.0 
0.7928320000 0.4779150000 0.7940800000 1 1 1 v 0.0 0.0 0.0 mag 0.0 

