ATOMIC_SPECIES
H   1.008         H_ONCV_PBE-1.0.upf
Au  196.966569    Au_ONCV_PBE-1.0.upf

NUMERICAL_ORBITAL
H_gga_6au_100Ry_2s1p.orb
Au_gga_7au_100Ry_4s2p2d1f.orb

LATTICE_CONSTANT
1.8897261258369282 

LATTICE_VECTORS
11.535200000      0.0000000000      0.0000000000      
0.0000000000      19.063800000      0.0000000000      
-5.767600000      0.0000000000      9.9897700000      

ATOMIC_POSITIONS
Direct

H
0.0000000000
2
0.5762100000 0.5303900000 0.6964240000 1 1 1 v 0.0 0.0 0.0 mag 0.0 
0.3849890000 0.5307980000 0.5064380000 1 1 1 v 0.0 0.0 0.0 mag 0.0 

Au
0.0000000000
64
0.0400000000 0.1000000000 0.0400000000 0 0 0 v 0.0 0.0 0.0 mag 0.0 
0.2900000000 0.1000000000 0.0400000000 0 0 0 v 0.0 0.0 0.0 mag 0.0 
0.5400000000 0.1000000000 0.0400000000 0 0 0 v 0.0 0.0 0.0 mag 0.0 
0.7900000000 0.1000000000 0.0400000000 0 0 0 v 0.0 0.0 0.0 mag 0.0 
0.0400000000 0.1000000000 0.2900000000 0 0 0 v 0.0 0.0 0.0 mag 0.0 
0.2900000000 0.1000000000 0.2900000000 0 0 0 v 0.0 0.0 0.0 mag 0.0 
0.5400000000 0.1000000000 0.2900000000 0 0 0 v 0.0 0.0 0.0 mag 0.0 
0.7900000000 0.1000000000 0.2900000000 0 0 0 v 0.0 0.0 0.0 mag 0.0 
0.0400000000 0.1000000000 0.5400000000 0 0 0 v 0.0 0.0 0.0 mag 0.0 
0.2900000000 0.1000000000 0.5400000000 0 0 0 v 0.0 0.0 0.0 mag 0.0 
0.5400000000 0.1000000000 0.5400000000 0 0 0 v 0.0 0.0 0.0 mag 0.0 
0.7900000000 0.1000000000 0.5400000000 0 0 0 v 0.0 0.0 0.0 mag 0.0 
0.0400000000 0.1000000000 0.7900000000 0 0 0 v 0.0 0.0 0.0 mag 0.0 
0.2900000000 0.1000000000 0.7900000000 0 0 0 v 0.0 0.0 0.0 mag 0.0 
0.5400000000 0.1000000000 0.7900000000 0 0 0 v 0.0 0.0 0.0 mag 0.0 
0.7900000000 0.1000000000 0.7900000000 0 0 0 v 0.0 0.0 0.0 mag 0.0 
0.1233330000 0.2235120000 0.2066670000 0 0 0 v 0.0 0.0 0.0 mag 0.0 
0.3733330000 0.2235120000 0.2066670000 0 0 0 v 0.0 0.0 0.0 mag 0.0 
0.6233330000 0.2235120000 0.2066670000 0 0 0 v 0.0 0.0 0.0 mag 0.0 
0.8733330000 0.2235120000 0.2066670000 0 0 0 v 0.0 0.0 0.0 mag 0.0 
0.1233330000 0.2235120000 0.4566670000 0 0 0 v 0.0 0.0 0.0 mag 0.0 
0.3733330000 0.2235120000 0.4566670000 0 0 0 v 0.0 0.0 0.0 mag 0.0 
0.6233330000 0.2235120000 0.4566670000 0 0 0 v 0.0 0.0 0.0 mag 0.0 
0.8733330000 0.2235120000 0.4566670000 0 0 0 v 0.0 0.0 0.0 mag 0.0 
0.1233330000 0.2235120000 0.7066670000 0 0 0 v 0.0 0.0 0.0 mag 0.0 
0.3733330000 0.2235120000 0.7066670000 0 0 0 v 0.0 0.0 0.0 mag 0.0 
0.6233330000 0.2235120000 0.7066670000 0 0 0 v 0.0 0.0 0.0 mag 0.0 
0.8733330000 0.2235120000 0.7066670000 0 0 0 v 0.0 0.0 0.0 mag 0.0 
0.1233330000 0.2235120000 0.9566670000 0 0 0 v 0.0 0.0 0.0 mag 0.0 
0.3733330000 0.2235120000 0.9566670000 0 0 0 v 0.0 0.0 0.0 mag 0.0 
0.6233330000 0.2235120000 0.9566670000 0 0 0 v 0.0 0.0 0.0 mag 0.0 
0.8733330000 0.2235120000 0.9566670000 0 0 0 v 0.0 0.0 0.0 mag 0.0 
0.2085560000 0.3465490000 0.1246530000 1 1 1 v 0.0 0.0 0.0 mag 0.0 
0.4564850000 0.3463810000 0.1240580000 1 1 1 v 0.0 0.0 0.0 mag 0.0 
0.7063330000 0.3471930000 0.1238240000 1 1 1 v 0.0 0.0 0.0 mag 0.0 
0.9568630000 0.3471300000 0.1232630000 1 1 1 v 0.0 0.0 0.0 mag 0.0 
0.2061520000 0.3474930000 0.3722290000 1 1 1 v 0.0 0.0 0.0 mag 0.0 
0.4573190000 0.3496760000 0.3780580000 1 1 1 v 0.0 0.0 0.0 mag 0.0 
0.7060920000 0.3469830000 0.3740510000 1 1 1 v 0.0 0.0 0.0 mag 0.0 
0.9563710000 0.3471900000 0.3738730000 1 1 1 v 0.0 0.0 0.0 mag 0.0 
0.2082140000 0.3484020000 0.6223480000 1 1 1 v 0.0 0.0 0.0 mag 0.0 
0.4564970000 0.3486430000 0.6237030000 1 1 1 v 0.0 0.0 0.0 mag 0.0 
0.7021060000 0.3497060000 0.6228510000 1 1 1 v 0.0 0.0 0.0 mag 0.0 
0.9560920000 0.3463930000 0.6236740000 1 1 1 v 0.0 0.0 0.0 mag 0.0 
0.2069960000 0.3458850000 0.8731640000 1 1 1 v 0.0 0.0 0.0 mag 0.0 
0.4578320000 0.3484010000 0.8719760000 1 1 1 v 0.0 0.0 0.0 mag 0.0 
0.7078950000 0.3475170000 0.8739750000 1 1 1 v 0.0 0.0 0.0 mag 0.0 
0.9554090000 0.3465960000 0.8715410000 1 1 1 v 0.0 0.0 0.0 mag 0.0 
0.0408830000 0.4739580000 0.0393460000 1 1 1 v 0.0 0.0 0.0 mag 0.0 
0.2900460000 0.4733760000 0.0399400000 1 1 1 v 0.0 0.0 0.0 mag 0.0 
0.5397240000 0.4732800000 0.0443520000 1 1 1 v 0.0 0.0 0.0 mag 0.0 
0.7927280000 0.4740670000 0.0440410000 1 1 1 v 0.0 0.0 0.0 mag 0.0 
0.0363030000 0.4740630000 0.2875860000 1 1 1 v 0.0 0.0 0.0 mag 0.0 
0.2860190000 0.4753590000 0.2846600000 1 1 1 v 0.0 0.0 0.0 mag 0.0 
0.5388620000 0.4737950000 0.2926690000 1 1 1 v 0.0 0.0 0.0 mag 0.0 
0.7883290000 0.4737100000 0.2919460000 1 1 1 v 0.0 0.0 0.0 mag 0.0 
0.0360040000 0.4732650000 0.5404900000 1 1 1 v 0.0 0.0 0.0 mag 0.0 
0.2793010000 0.4767650000 0.5374880000 1 1 1 v 0.0 0.0 0.0 mag 0.0 
0.5397870000 0.4883900000 0.5402420000 1 1 1 v 0.0 0.0 0.0 mag 0.0 
0.7874980000 0.4737870000 0.5413320000 1 1 1 v 0.0 0.0 0.0 mag 0.0 
0.0401570000 0.4733760000 0.7900550000 1 1 1 v 0.0 0.0 0.0 mag 0.0 
0.2886410000 0.4737990000 0.7915880000 1 1 1 v 0.0 0.0 0.0 mag 0.0 
0.5427260000 0.4768220000 0.8012000000 1 1 1 v 0.0 0.0 0.0 mag 0.0 
0.7954870000 0.4755040000 0.7942610000 1 1 1 v 0.0 0.0 0.0 mag 0.0 

