ATOMIC_SPECIES
H   1.008         H_ONCV_PBE-1.0.upf
Au  196.966569    Au_ONCV_PBE-1.0.upf

NUMERICAL_ORBITAL
H_gga_6au_100Ry_2s1p.orb
Au_gga_7au_100Ry_4s2p2d1f.orb

LATTICE_CONSTANT
1.8897261258369282 

LATTICE_VECTORS
11.535200000      0.0000000000      0.0000000000      
0.0000000000      19.063800000      0.0000000000      
-5.767600000      0.0000000000      9.9897700000      

ATOMIC_POSITIONS
Direct

H
0.0000000000
2
0.5008980000 0.5849420000 0.6452800000 1 1 1 v 0.0 0.0 0.0 mag 0.0 
0.4350360000 0.5848970000 0.5794870000 1 1 1 v 0.0 0.0 0.0 mag 0.0 

Au
0.0000000000
64
0.0400000000 0.1000000000 0.0400000000 0 0 0 v 0.0 0.0 0.0 mag 0.0 
0.2900000000 0.1000000000 0.0400000000 0 0 0 v 0.0 0.0 0.0 mag 0.0 
0.5400000000 0.1000000000 0.0400000000 0 0 0 v 0.0 0.0 0.0 mag 0.0 
0.7900000000 0.1000000000 0.0400000000 0 0 0 v 0.0 0.0 0.0 mag 0.0 
0.0400000000 0.1000000000 0.2900000000 0 0 0 v 0.0 0.0 0.0 mag 0.0 
0.2900000000 0.1000000000 0.2900000000 0 0 0 v 0.0 0.0 0.0 mag 0.0 
0.5400000000 0.1000000000 0.2900000000 0 0 0 v 0.0 0.0 0.0 mag 0.0 
0.7900000000 0.1000000000 0.2900000000 0 0 0 v 0.0 0.0 0.0 mag 0.0 
0.0400000000 0.1000000000 0.5400000000 0 0 0 v 0.0 0.0 0.0 mag 0.0 
0.2900000000 0.1000000000 0.5400000000 0 0 0 v 0.0 0.0 0.0 mag 0.0 
0.5400000000 0.1000000000 0.5400000000 0 0 0 v 0.0 0.0 0.0 mag 0.0 
0.7900000000 0.1000000000 0.5400000000 0 0 0 v 0.0 0.0 0.0 mag 0.0 
0.0400000000 0.1000000000 0.7900000000 0 0 0 v 0.0 0.0 0.0 mag 0.0 
0.2900000000 0.1000000000 0.7900000000 0 0 0 v 0.0 0.0 0.0 mag 0.0 
0.5400000000 0.1000000000 0.7900000000 0 0 0 v 0.0 0.0 0.0 mag 0.0 
0.7900000000 0.1000000000 0.7900000000 0 0 0 v 0.0 0.0 0.0 mag 0.0 
0.1233330000 0.2235120000 0.2066670000 0 0 0 v 0.0 0.0 0.0 mag 0.0 
0.3733330000 0.2235120000 0.2066670000 0 0 0 v 0.0 0.0 0.0 mag 0.0 
0.6233330000 0.2235120000 0.2066670000 0 0 0 v 0.0 0.0 0.0 mag 0.0 
0.8733330000 0.2235120000 0.2066670000 0 0 0 v 0.0 0.0 0.0 mag 0.0 
0.1233330000 0.2235120000 0.4566670000 0 0 0 v 0.0 0.0 0.0 mag 0.0 
0.3733330000 0.2235120000 0.4566670000 0 0 0 v 0.0 0.0 0.0 mag 0.0 
0.6233330000 0.2235120000 0.4566670000 0 0 0 v 0.0 0.0 0.0 mag 0.0 
0.8733330000 0.2235120000 0.4566670000 0 0 0 v 0.0 0.0 0.0 mag 0.0 
0.1233330000 0.2235120000 0.7066670000 0 0 0 v 0.0 0.0 0.0 mag 0.0 
0.3733330000 0.2235120000 0.7066670000 0 0 0 v 0.0 0.0 0.0 mag 0.0 
0.6233330000 0.2235120000 0.7066670000 0 0 0 v 0.0 0.0 0.0 mag 0.0 
0.8733330000 0.2235120000 0.7066670000 0 0 0 v 0.0 0.0 0.0 mag 0.0 
0.1233330000 0.2235120000 0.9566670000 0 0 0 v 0.0 0.0 0.0 mag 0.0 
0.3733330000 0.2235120000 0.9566670000 0 0 0 v 0.0 0.0 0.0 mag 0.0 
0.6233330000 0.2235120000 0.9566670000 0 0 0 v 0.0 0.0 0.0 mag 0.0 
0.8733330000 0.2235120000 0.9566670000 0 0 0 v 0.0 0.0 0.0 mag 0.0 
0.2055030000 0.3474340000 0.1220180000 1 1 1 v 0.0 0.0 0.0 mag 0.0 
0.4570380000 0.3475810000 0.1240590000 1 1 1 v 0.0 0.0 0.0 mag 0.0 
0.7061460000 0.3476570000 0.1238990000 1 1 1 v 0.0 0.0 0.0 mag 0.0 
0.9557630000 0.3477470000 0.1241760000 1 1 1 v 0.0 0.0 0.0 mag 0.0 
0.2048490000 0.3465700000 0.3713990000 1 1 1 v 0.0 0.0 0.0 mag 0.0 
0.4546430000 0.3465740000 0.3717300000 1 1 1 v 0.0 0.0 0.0 mag 0.0 
0.7059520000 0.3474700000 0.3739880000 1 1 1 v 0.0 0.0 0.0 mag 0.0 
0.9560560000 0.3476550000 0.3738010000 1 1 1 v 0.0 0.0 0.0 mag 0.0 
0.2053760000 0.3466040000 0.6246280000 1 1 1 v 0.0 0.0 0.0 mag 0.0 
0.4559880000 0.3463190000 0.6239530000 1 1 1 v 0.0 0.0 0.0 mag 0.0 
0.7081910000 0.3465760000 0.6252730000 1 1 1 v 0.0 0.0 0.0 mag 0.0 
0.9558660000 0.3475850000 0.6228820000 1 1 1 v 0.0 0.0 0.0 mag 0.0 
0.2058530000 0.3476010000 0.8740570000 1 1 1 v 0.0 0.0 0.0 mag 0.0 
0.4553060000 0.3466060000 0.8745640000 1 1 1 v 0.0 0.0 0.0 mag 0.0 
0.7085350000 0.3465690000 0.8750930000 1 1 1 v 0.0 0.0 0.0 mag 0.0 
0.9579080000 0.3474260000 0.8744200000 1 1 1 v 0.0 0.0 0.0 mag 0.0 
0.0394950000 0.4756130000 0.0403780000 1 1 1 v 0.0 0.0 0.0 mag 0.0 
0.2888310000 0.4754410000 0.0400480000 1 1 1 v 0.0 0.0 0.0 mag 0.0 
0.5391040000 0.4754390000 0.0422650000 1 1 1 v 0.0 0.0 0.0 mag 0.0 
0.7906930000 0.4755930000 0.0423700000 1 1 1 v 0.0 0.0 0.0 mag 0.0 
0.0374800000 0.4755850000 0.2891880000 1 1 1 v 0.0 0.0 0.0 mag 0.0 
0.2883030000 0.4740750000 0.2898420000 1 1 1 v 0.0 0.0 0.0 mag 0.0 
0.5386360000 0.4751860000 0.2895190000 1 1 1 v 0.0 0.0 0.0 mag 0.0 
0.7887800000 0.4750470000 0.2910490000 1 1 1 v 0.0 0.0 0.0 mag 0.0 
0.0375680000 0.4754380000 0.5407340000 1 1 1 v 0.0 0.0 0.0 mag 0.0 
0.2834760000 0.4695620000 0.5376720000 1 1 1 v 0.0 0.0 0.0 mag 0.0 
0.5414710000 0.4686990000 0.5383450000 1 1 1 v 0.0 0.0 0.0 mag 0.0 
0.7903340000 0.4751970000 0.5412130000 1 1 1 v 0.0 0.0 0.0 mag 0.0 
0.0398050000 0.4754480000 0.7910160000 1 1 1 v 0.0 0.0 0.0 mag 0.0 
0.2896140000 0.4744540000 0.7902080000 1 1 1 v 0.0 0.0 0.0 mag 0.0 
0.5421930000 0.4695560000 0.7963890000 1 1 1 v 0.0 0.0 0.0 mag 0.0 
0.7900170000 0.4740530000 0.7915330000 1 1 1 v 0.0 0.0 0.0 mag 0.0 

