ATOMIC_SPECIES
H   1.008         H_ONCV_PBE-1.0.upf
Au  196.966569    Au_ONCV_PBE-1.0.upf

NUMERICAL_ORBITAL
H_gga_6au_100Ry_2s1p.orb
Au_gga_7au_100Ry_4s2p2d1f.orb

LATTICE_CONSTANT
1.8897261258369282 

LATTICE_VECTORS
11.535200000      0.0000000000      0.0000000000      
0.0000000000      19.063800000      0.0000000000      
-5.767600000      0.0000000000      9.9897700000      

ATOMIC_POSITIONS
Direct

H
0.0000000000
2
0.5161520000 0.5338560000 0.6597730000 1 1 1 v 0.0 0.0 0.0 mag 0.0 
0.4207840000 0.5338580000 0.5644990000 1 1 1 v 0.0 0.0 0.0 mag 0.0 

Au
0.0000000000
64
0.0400000000 0.1000000000 0.0400000000 0 0 0 v 0.0 0.0 0.0 mag 0.0 
0.2900000000 0.1000000000 0.0400000000 0 0 0 v 0.0 0.0 0.0 mag 0.0 
0.5400000000 0.1000000000 0.0400000000 0 0 0 v 0.0 0.0 0.0 mag 0.0 
0.7900000000 0.1000000000 0.0400000000 0 0 0 v 0.0 0.0 0.0 mag 0.0 
0.0400000000 0.1000000000 0.2900000000 0 0 0 v 0.0 0.0 0.0 mag 0.0 
0.2900000000 0.1000000000 0.2900000000 0 0 0 v 0.0 0.0 0.0 mag 0.0 
0.5400000000 0.1000000000 0.2900000000 0 0 0 v 0.0 0.0 0.0 mag 0.0 
0.7900000000 0.1000000000 0.2900000000 0 0 0 v 0.0 0.0 0.0 mag 0.0 
0.0400000000 0.1000000000 0.5400000000 0 0 0 v 0.0 0.0 0.0 mag 0.0 
0.2900000000 0.1000000000 0.5400000000 0 0 0 v 0.0 0.0 0.0 mag 0.0 
0.5400000000 0.1000000000 0.5400000000 0 0 0 v 0.0 0.0 0.0 mag 0.0 
0.7900000000 0.1000000000 0.5400000000 0 0 0 v 0.0 0.0 0.0 mag 0.0 
0.0400000000 0.1000000000 0.7900000000 0 0 0 v 0.0 0.0 0.0 mag 0.0 
0.2900000000 0.1000000000 0.7900000000 0 0 0 v 0.0 0.0 0.0 mag 0.0 
0.5400000000 0.1000000000 0.7900000000 0 0 0 v 0.0 0.0 0.0 mag 0.0 
0.7900000000 0.1000000000 0.7900000000 0 0 0 v 0.0 0.0 0.0 mag 0.0 
0.1233330000 0.2235120000 0.2066670000 0 0 0 v 0.0 0.0 0.0 mag 0.0 
0.3733330000 0.2235120000 0.2066670000 0 0 0 v 0.0 0.0 0.0 mag 0.0 
0.6233330000 0.2235120000 0.2066670000 0 0 0 v 0.0 0.0 0.0 mag 0.0 
0.8733330000 0.2235120000 0.2066670000 0 0 0 v 0.0 0.0 0.0 mag 0.0 
0.1233330000 0.2235120000 0.4566670000 0 0 0 v 0.0 0.0 0.0 mag 0.0 
0.3733330000 0.2235120000 0.4566670000 0 0 0 v 0.0 0.0 0.0 mag 0.0 
0.6233330000 0.2235120000 0.4566670000 0 0 0 v 0.0 0.0 0.0 mag 0.0 
0.8733330000 0.2235120000 0.4566670000 0 0 0 v 0.0 0.0 0.0 mag 0.0 
0.1233330000 0.2235120000 0.7066670000 0 0 0 v 0.0 0.0 0.0 mag 0.0 
0.3733330000 0.2235120000 0.7066670000 0 0 0 v 0.0 0.0 0.0 mag 0.0 
0.6233330000 0.2235120000 0.7066670000 0 0 0 v 0.0 0.0 0.0 mag 0.0 
0.8733330000 0.2235120000 0.7066670000 0 0 0 v 0.0 0.0 0.0 mag 0.0 
0.1233330000 0.2235120000 0.9566670000 0 0 0 v 0.0 0.0 0.0 mag 0.0 
0.3733330000 0.2235120000 0.9566670000 0 0 0 v 0.0 0.0 0.0 mag 0.0 
0.6233330000 0.2235120000 0.9566670000 0 0 0 v 0.0 0.0 0.0 mag 0.0 
0.8733330000 0.2235120000 0.9566670000 0 0 0 v 0.0 0.0 0.0 mag 0.0 
0.2070820000 0.3462120000 0.1231910000 1 1 1 v 0.0 0.0 0.0 mag 0.0 
0.4568770000 0.3465550000 0.1235560000 1 1 1 v 0.0 0.0 0.0 mag 0.0 
0.7063190000 0.3473790000 0.1240170000 1 1 1 v 0.0 0.0 0.0 mag 0.0 
0.9562650000 0.3470510000 0.1238320000 1 1 1 v 0.0 0.0 0.0 mag 0.0 
0.2063570000 0.3474140000 0.3725170000 1 1 1 v 0.0 0.0 0.0 mag 0.0 
0.4562240000 0.3488710000 0.3760910000 1 1 1 v 0.0 0.0 0.0 mag 0.0 
0.7059310000 0.3468360000 0.3741690000 1 1 1 v 0.0 0.0 0.0 mag 0.0 
0.9560790000 0.3473840000 0.3737690000 1 1 1 v 0.0 0.0 0.0 mag 0.0 
0.2083000000 0.3481100000 0.6231190000 1 1 1 v 0.0 0.0 0.0 mag 0.0 
0.4563850000 0.3494090000 0.6237170000 1 1 1 v 0.0 0.0 0.0 mag 0.0 
0.7040280000 0.3488800000 0.6238800000 1 1 1 v 0.0 0.0 0.0 mag 0.0 
0.9565560000 0.3465620000 0.6232180000 1 1 1 v 0.0 0.0 0.0 mag 0.0 
0.2070190000 0.3461940000 0.8730850000 1 1 1 v 0.0 0.0 0.0 mag 0.0 
0.4569590000 0.3480990000 0.8718010000 1 1 1 v 0.0 0.0 0.0 mag 0.0 
0.7075740000 0.3474070000 0.8737320000 1 1 1 v 0.0 0.0 0.0 mag 0.0 
0.9569500000 0.3462110000 0.8730400000 1 1 1 v 0.0 0.0 0.0 mag 0.0 
0.0409680000 0.4742750000 0.0392470000 1 1 1 v 0.0 0.0 0.0 mag 0.0 
0.2896750000 0.4736890000 0.0389580000 1 1 1 v 0.0 0.0 0.0 mag 0.0 
0.5395510000 0.4744020000 0.0440490000 1 1 1 v 0.0 0.0 0.0 mag 0.0 
0.7938640000 0.4751840000 0.0447860000 1 1 1 v 0.0 0.0 0.0 mag 0.0 
0.0354040000 0.4751960000 0.2863300000 1 1 1 v 0.0 0.0 0.0 mag 0.0 
0.2861460000 0.4744180000 0.2851200000 1 1 1 v 0.0 0.0 0.0 mag 0.0 
0.5388240000 0.4742790000 0.2894360000 1 1 1 v 0.0 0.0 0.0 mag 0.0 
0.7887380000 0.4740060000 0.2913950000 1 1 1 v 0.0 0.0 0.0 mag 0.0 
0.0361240000 0.4744140000 0.5405630000 1 1 1 v 0.0 0.0 0.0 mag 0.0 
0.2757340000 0.4760090000 0.5311500000 1 1 1 v 0.0 0.0 0.0 mag 0.0 
0.5439480000 0.4803230000 0.5361230000 1 1 1 v 0.0 0.0 0.0 mag 0.0 
0.7907110000 0.4742820000 0.5413250000 1 1 1 v 0.0 0.0 0.0 mag 0.0 
0.0411910000 0.4736950000 0.7904530000 1 1 1 v 0.0 0.0 0.0 mag 0.0 
0.2904150000 0.4743260000 0.7897130000 1 1 1 v 0.0 0.0 0.0 mag 0.0 
0.5490430000 0.4759840000 0.8045330000 1 1 1 v 0.0 0.0 0.0 mag 0.0 
0.7950810000 0.4743880000 0.7940570000 1 1 1 v 0.0 0.0 0.0 mag 0.0 

