ATOMIC_SPECIES
C   12.011  C_ONCV_PBE-1.0.upf
Pt  195.085  Pt_ONCV_PBE-1.0.upf
H    1.008  H_ONCV_PBE-1.0.upf

NUMERICAL_ORBITAL
C_gga_7au_100Ry_2s2p1d.orb
Pt_gga_7au_100Ry_4s2p2d1f.orb
H_gga_6au_100Ry_2s1p.orb

LATTICE_CONSTANT
1.889726

LATTICE_VECTORS
12.32269689546  0.000000000000  0.000000000000
0.000000000000  19.99999569682  0.000000000000
-6.16154042858  0.000000000000  10.67154318512

ATOMIC_POSITIONS
Direct

C 
0.000
54
0.033305980400  0.496628151100  0.031657461000  1  1  1  mag  0.0
0.167451178700  0.495568267400  0.100555509400  1  1  1  mag  0.0
0.235114247300  0.495525814400  0.035160418400  1  1  1  mag  0.0
0.368959673200  0.498245818800  0.103466229700  1  1  1  mag  0.0
0.434000217400  0.493030949800  0.034961851800  1  1  1  mag  0.0
0.567106702500  0.493001115500  0.099567877800  1  1  1  mag  0.0
0.632690178200  0.489552984000  0.031700769400  1  1  1  mag  0.0
0.765800736000  0.491319093500  0.096225929900  1  1  1  mag  0.0
0.831225682700  0.494782704900  0.027682454800  1  1  1  mag  0.0
0.965424991200  0.493780671900  0.096600781800  1  1  1  mag  0.0
0.031834048100  0.488271138500  0.229811181400  1  1  1  mag  0.0
0.165433083200  0.487388722000  0.298124635600  1  1  1  mag  0.0
0.234742141100  0.493540065800  0.234538720500  1  1  1  mag  0.0
0.369745981100  0.499760694100  0.305387274300  1  1  1  mag  0.0
0.436301676100  0.506438841600  0.236721894900  1  1  1  mag  0.0
0.570238091700  0.513751961400  0.299196881000  1  1  1  mag  0.0
0.634877529400  0.500385070000  0.232344730300  1  1  1  mag  0.0
0.767974050800  0.496560371300  0.297396764000  1  1  1  mag  0.0
0.833003287800  0.490798751300  0.229738261300  1  1  1  mag  0.0
0.965979696500  0.486874838100  0.297087149800  1  1  1  mag  0.0
0.032137459700  0.483559779700  0.431080588300  1  1  1  mag  0.0
0.164239151900  0.479846166500  0.498971629200  1  1  1  mag  0.0
0.229215196100  0.482570742500  0.431277438100  1  1  1  mag  0.0
0.360832097700  0.485699444400  0.498656300300  1  1  1  mag  0.0
0.430670178700  0.496425682400  0.438504657400  1  1  1  mag  0.0
0.646188542000  0.532523026400  0.427757304400  1  1  1  mag  0.0
0.775489670500  0.517187974000  0.497062509500  1  1  1  mag  0.0
0.836586670100  0.498857213700  0.430910810000  1  1  1  mag  0.0
0.967725870100  0.489070310100  0.498822949800  1  1  1  mag  0.0
0.034616246500  0.490434201000  0.632764604500  1  1  1  mag  0.0
0.166370695100  0.483703650800  0.700769056600  1  1  1  mag  0.0
0.230556782500  0.478417993600  0.633258009600  1  1  1  mag  0.0
0.362901433100  0.478628606000  0.701558527000  1  1  1  mag  0.0
0.426873416000  0.484261759600  0.634632884200  1  1  1  mag  0.0
0.554571973500  0.498032618800  0.697824876000  1  1  1  mag  0.0
0.775503175100  0.521219475500  0.697276900400  1  1  1  mag  0.0
0.841455931700  0.515038972700  0.632422249300  1  1  1  mag  0.0
0.971162604300  0.500893617300  0.700024485800  1  1  1  mag  0.0
0.035281385600  0.498822867700  0.833366009100  1  1  1  mag  0.0
0.168296581000  0.493280756500  0.901666141800  1  1  1  mag  0.0
0.233726166500  0.487221750000  0.834663519700  1  1  1  mag  0.0
0.366702746100  0.486335878600  0.902217984800  1  1  1  mag  0.0
0.432106544700  0.482537902100  0.834596407900  1  1  1  mag  0.0
0.565115759700  0.486873375300  0.898476168900  1  1  1  mag  0.0
0.629090188000  0.494710562400  0.828798161000  1  1  1  mag  0.0
0.764063453900  0.500686256300  0.894271800100  1  1  1  mag  0.0
0.832339956600  0.507770418700  0.828140590600  1  1  1  mag  0.0
0.966630670600  0.501475863700  0.897755277400  1  1  1  mag  0.0
0.637227455500  0.636862400300  0.660249323300  1  1  1  mag  0.0
0.769163490500  0.664919676200  0.733748224400  1  1  1  mag  0.0
0.765057516300  0.740578277000  0.754954503100  1  1  1  mag  0.0
0.689228208600  0.755805303600  0.819249305000  1  1  1  mag  0.0
0.557643360600  0.726184981500  0.745520611300  1  1  1  mag  0.0
0.562743355400  0.650418837200  0.725794091100  1  1  1  mag  0.0

Pt
0.000
1
0.595645667300  0.537800062100  0.575590927500  1  1  1  mag  0.0

H 
0.000
12
0.504358460700  0.735124265700  0.793859693300  1  1  1  mag  0.0
0.589275855500  0.661490697000  0.567358289500  1  1  1  mag  0.0
0.822122200800  0.655404187900  0.685416549200  1  1  1  mag  0.0
0.820493484000  0.640160730500  0.825421585600  1  1  1  mag  0.0
0.861252758700  0.759778846200  0.810566455600  1  1  1  mag  0.0
0.722795521200  0.766689852900  0.664109215500  1  1  1  mag  0.0
0.684300591500  0.810064168600  0.830587440900  1  1  1  mag  0.0
0.737375408600  0.734378244900  0.914349483700  1  1  1  mag  0.0
0.505701539400  0.751157729900  0.653777816000  1  1  1  mag  0.0
0.467161505200  0.630407943700  0.671893233500  1  1  1  mag  0.0
0.607408987100  0.625644009200  0.817541695000  1  1  1  mag  0.0
0.616528350200  0.581798767200  0.453661420500  1  1  1  mag  0.0
