ATOMIC_SPECIES
Li  6.94          Li_ONCV_PBE-1.2.upf
Si  28.085        Si_ONCV_PBE-1.2.upf

NUMERICAL_ORBITAL
Li_gga_8au_100Ry_4s1p.orb
Si_gga_8au_100Ry_2s2p1d.orb

LATTICE_CONSTANT
1.8897261258369282 

LATTICE_VECTORS
10.862000000      0.0000000000      0.0000000000      
0.0000000000      10.862000000      0.0000000000      
0.0000000000      0.0000000000      10.862000000      

ATOMIC_POSITIONS
Direct

Li
0.0000000000
1
0.6276630000 0.6276630000 0.6276630000 1 1 1 v 0.0 0.0 0.0 mag 0.0 

Si
0.0000000000
64
0.1276090000 0.3772860000 0.1276090000 1 1 1 v 0.0 0.0 0.0 mag 0.0 
0.1276260000 0.3778780000 0.6275960000 1 1 1 v 0.0 0.0 0.0 mag 0.0 
0.1276220000 0.8779090000 0.1276220000 1 1 1 v 0.0 0.0 0.0 mag 0.0 
0.1276230000 0.8773300000 0.6275870000 1 1 1 v 0.0 0.0 0.0 mag 0.0 
0.6275960000 0.3778780000 0.1276260000 1 1 1 v 0.0 0.0 0.0 mag 0.0 
0.6276060000 0.3761100000 0.6276060000 1 1 1 v 0.0 0.0 0.0 mag 0.0 
0.6275870000 0.8773300000 0.1276230000 1 1 1 v 0.0 0.0 0.0 mag 0.0 
0.6276530000 0.8791820000 0.6276530000 1 1 1 v 0.0 0.0 0.0 mag 0.0 
0.0026820000 0.0026820000 0.2525220000 1 1 1 v 0.0 0.0 0.0 mag 0.0 
0.0035030000 0.0035030000 0.7519350000 1 1 1 v 0.0 0.0 0.0 mag 0.0 
0.0034850000 0.5032370000 0.2517500000 1 1 1 v 0.0 0.0 0.0 mag 0.0 
0.0027000000 0.5020170000 0.7531770000 1 1 1 v 0.0 0.0 0.0 mag 0.0 
0.5032370000 0.0034850000 0.2517500000 1 1 1 v 0.0 0.0 0.0 mag 0.0 
0.5020170000 0.0027000000 0.7531770000 1 1 1 v 0.0 0.0 0.0 mag 0.0 
0.5020410000 0.5020410000 0.2525520000 1 1 1 v 0.0 0.0 0.0 mag 0.0 
0.4980740000 0.4980740000 0.7571990000 1 1 1 v 0.0 0.0 0.0 mag 0.0 
0.1276090000 0.1276090000 0.3772860000 1 1 1 v 0.0 0.0 0.0 mag 0.0 
0.1276220000 0.1276220000 0.8779090000 1 1 1 v 0.0 0.0 0.0 mag 0.0 
0.1276260000 0.6275960000 0.3778780000 1 1 1 v 0.0 0.0 0.0 mag 0.0 
0.1276230000 0.6275870000 0.8773300000 1 1 1 v 0.0 0.0 0.0 mag 0.0 
0.6275960000 0.1276260000 0.3778780000 1 1 1 v 0.0 0.0 0.0 mag 0.0 
0.6275870000 0.1276230000 0.8773300000 1 1 1 v 0.0 0.0 0.0 mag 0.0 
0.6276060000 0.6276060000 0.3761100000 1 1 1 v 0.0 0.0 0.0 mag 0.0 
0.6276530000 0.6276530000 0.8791820000 1 1 1 v 0.0 0.0 0.0 mag 0.0 
0.0026820000 0.2525220000 0.0026820000 1 1 1 v 0.0 0.0 0.0 mag 0.0 
0.0034850000 0.2517500000 0.5032370000 1 1 1 v 0.0 0.0 0.0 mag 0.0 
0.0035030000 0.7519350000 0.0035030000 1 1 1 v 0.0 0.0 0.0 mag 0.0 
0.0027000000 0.7531770000 0.5020170000 1 1 1 v 0.0 0.0 0.0 mag 0.0 
0.5032370000 0.2517500000 0.0034850000 1 1 1 v 0.0 0.0 0.0 mag 0.0 
0.5020410000 0.2525520000 0.5020410000 1 1 1 v 0.0 0.0 0.0 mag 0.0 
0.5020170000 0.7531770000 0.0027000000 1 1 1 v 0.0 0.0 0.0 mag 0.0 
0.4980740000 0.7571990000 0.4980740000 1 1 1 v 0.0 0.0 0.0 mag 0.0 
0.3773790000 0.3773790000 0.3773790000 1 1 1 v 0.0 0.0 0.0 mag 0.0 
0.3740720000 0.3740720000 0.8811610000 1 1 1 v 0.0 0.0 0.0 mag 0.0 
0.3740720000 0.8811610000 0.3740720000 1 1 1 v 0.0 0.0 0.0 mag 0.0 
0.3773680000 0.8778380000 0.8778380000 1 1 1 v 0.0 0.0 0.0 mag 0.0 
0.8811610000 0.3740730000 0.3740730000 1 1 1 v 0.0 0.0 0.0 mag 0.0 
0.8778380000 0.3773680000 0.8778380000 1 1 1 v 0.0 0.0 0.0 mag 0.0 
0.8778380000 0.8778380000 0.3773680000 1 1 1 v 0.0 0.0 0.0 mag 0.0 
0.8812520000 0.8812520000 0.8812520000 1 1 1 v 0.0 0.0 0.0 mag 0.0 
0.2525220000 0.0026820000 0.0026820000 1 1 1 v 0.0 0.0 0.0 mag 0.0 
0.2517500000 0.0034850000 0.5032370000 1 1 1 v 0.0 0.0 0.0 mag 0.0 
0.2517490000 0.5032370000 0.0034850000 1 1 1 v 0.0 0.0 0.0 mag 0.0 
0.2525520000 0.5020410000 0.5020410000 1 1 1 v 0.0 0.0 0.0 mag 0.0 
0.7519350000 0.0035030000 0.0035030000 1 1 1 v 0.0 0.0 0.0 mag 0.0 
0.7531770000 0.0027000000 0.5020170000 1 1 1 v 0.0 0.0 0.0 mag 0.0 
0.7531770000 0.5020170000 0.0027000000 1 1 1 v 0.0 0.0 0.0 mag 0.0 
0.7571990000 0.4980740000 0.4980740000 1 1 1 v 0.0 0.0 0.0 mag 0.0 
0.3772860000 0.1276090000 0.1276090000 1 1 1 v 0.0 0.0 0.0 mag 0.0 
0.3778780000 0.1276260000 0.6275960000 1 1 1 v 0.0 0.0 0.0 mag 0.0 
0.3778780000 0.6275960000 0.1276260000 1 1 1 v 0.0 0.0 0.0 mag 0.0 
0.3761100000 0.6276060000 0.6276060000 1 1 1 v 0.0 0.0 0.0 mag 0.0 
0.8779090000 0.1276220000 0.1276220000 1 1 1 v 0.0 0.0 0.0 mag 0.0 
0.8773300000 0.1276230000 0.6275870000 1 1 1 v 0.0 0.0 0.0 mag 0.0 
0.8773300000 0.6275870000 0.1276230000 1 1 1 v 0.0 0.0 0.0 mag 0.0 
0.8791820000 0.6276530000 0.6276530000 1 1 1 v 0.0 0.0 0.0 mag 0.0 
0.2525440000 0.2525440000 0.2525440000 1 1 1 v 0.0 0.0 0.0 mag 0.0 
0.2517590000 0.2517590000 0.7519710000 1 1 1 v 0.0 0.0 0.0 mag 0.0 
0.2517590000 0.7519710000 0.2517590000 1 1 1 v 0.0 0.0 0.0 mag 0.0 
0.2525400000 0.7531660000 0.7531660000 1 1 1 v 0.0 0.0 0.0 mag 0.0 
0.7519710000 0.2517590000 0.2517590000 1 1 1 v 0.0 0.0 0.0 mag 0.0 
0.7531660000 0.2525400000 0.7531660000 1 1 1 v 0.0 0.0 0.0 mag 0.0 
0.7531660000 0.7531660000 0.2525400000 1 1 1 v 0.0 0.0 0.0 mag 0.0 
0.7572690000 0.7572690000 0.7572690000 1 1 1 v 0.0 0.0 0.0 mag 0.0 

