ATOMIC_SPECIES
H   1.008         H_ONCV_PBE-1.0.upf
Au  196.966569    Au_ONCV_PBE-1.0.upf

NUMERICAL_ORBITAL
H_gga_6au_100Ry_2s1p.orb
Au_gga_7au_100Ry_4s2p2d1f.orb

LATTICE_CONSTANT
1.8897261258369282 

LATTICE_VECTORS
11.535200000      0.0000000000      0.0000000000      
0.0000000000      19.063800000      0.0000000000      
-5.767600000      0.0000000000      9.9897700000      

ATOMIC_POSITIONS
Direct

H
0.0000000000
2
0.5014170000 0.5763580000 0.6458140000 1 1 1 v 0.0 0.0 0.0 mag 0.0 
0.4351270000 0.5763580000 0.5795730000 1 1 1 v 0.0 0.0 0.0 mag 0.0 

Au
0.0000000000
64
0.0400000000 0.1000000000 0.0400000000 0 0 0 v 0.0 0.0 0.0 mag 0.0 
0.2900000000 0.1000000000 0.0400000000 0 0 0 v 0.0 0.0 0.0 mag 0.0 
0.5400000000 0.1000000000 0.0400000000 0 0 0 v 0.0 0.0 0.0 mag 0.0 
0.7900000000 0.1000000000 0.0400000000 0 0 0 v 0.0 0.0 0.0 mag 0.0 
0.0400000000 0.1000000000 0.2900000000 0 0 0 v 0.0 0.0 0.0 mag 0.0 
0.2900000000 0.1000000000 0.2900000000 0 0 0 v 0.0 0.0 0.0 mag 0.0 
0.5400000000 0.1000000000 0.2900000000 0 0 0 v 0.0 0.0 0.0 mag 0.0 
0.7900000000 0.1000000000 0.2900000000 0 0 0 v 0.0 0.0 0.0 mag 0.0 
0.0400000000 0.1000000000 0.5400000000 0 0 0 v 0.0 0.0 0.0 mag 0.0 
0.2900000000 0.1000000000 0.5400000000 0 0 0 v 0.0 0.0 0.0 mag 0.0 
0.5400000000 0.1000000000 0.5400000000 0 0 0 v 0.0 0.0 0.0 mag 0.0 
0.7900000000 0.1000000000 0.5400000000 0 0 0 v 0.0 0.0 0.0 mag 0.0 
0.0400000000 0.1000000000 0.7900000000 0 0 0 v 0.0 0.0 0.0 mag 0.0 
0.2900000000 0.1000000000 0.7900000000 0 0 0 v 0.0 0.0 0.0 mag 0.0 
0.5400000000 0.1000000000 0.7900000000 0 0 0 v 0.0 0.0 0.0 mag 0.0 
0.7900000000 0.1000000000 0.7900000000 0 0 0 v 0.0 0.0 0.0 mag 0.0 
0.1233330000 0.2235120000 0.2066670000 0 0 0 v 0.0 0.0 0.0 mag 0.0 
0.3733330000 0.2235120000 0.2066670000 0 0 0 v 0.0 0.0 0.0 mag 0.0 
0.6233330000 0.2235120000 0.2066670000 0 0 0 v 0.0 0.0 0.0 mag 0.0 
0.8733330000 0.2235120000 0.2066670000 0 0 0 v 0.0 0.0 0.0 mag 0.0 
0.1233330000 0.2235120000 0.4566670000 0 0 0 v 0.0 0.0 0.0 mag 0.0 
0.3733330000 0.2235120000 0.4566670000 0 0 0 v 0.0 0.0 0.0 mag 0.0 
0.6233330000 0.2235120000 0.4566670000 0 0 0 v 0.0 0.0 0.0 mag 0.0 
0.8733330000 0.2235120000 0.4566670000 0 0 0 v 0.0 0.0 0.0 mag 0.0 
0.1233330000 0.2235120000 0.7066670000 0 0 0 v 0.0 0.0 0.0 mag 0.0 
0.3733330000 0.2235120000 0.7066670000 0 0 0 v 0.0 0.0 0.0 mag 0.0 
0.6233330000 0.2235120000 0.7066670000 0 0 0 v 0.0 0.0 0.0 mag 0.0 
0.8733330000 0.2235120000 0.7066670000 0 0 0 v 0.0 0.0 0.0 mag 0.0 
0.1233330000 0.2235120000 0.9566670000 0 0 0 v 0.0 0.0 0.0 mag 0.0 
0.3733330000 0.2235120000 0.9566670000 0 0 0 v 0.0 0.0 0.0 mag 0.0 
0.6233330000 0.2235120000 0.9566670000 0 0 0 v 0.0 0.0 0.0 mag 0.0 
0.8733330000 0.2235120000 0.9566670000 0 0 0 v 0.0 0.0 0.0 mag 0.0 
0.2059360000 0.3472420000 0.1216170000 1 1 1 v 0.0 0.0 0.0 mag 0.0 
0.4574810000 0.3474290000 0.1237920000 1 1 1 v 0.0 0.0 0.0 mag 0.0 
0.7065710000 0.3475510000 0.1236840000 1 1 1 v 0.0 0.0 0.0 mag 0.0 
0.9561860000 0.3476250000 0.1239210000 1 1 1 v 0.0 0.0 0.0 mag 0.0 
0.2052820000 0.3464280000 0.3709300000 1 1 1 v 0.0 0.0 0.0 mag 0.0 
0.4549550000 0.3465130000 0.3715590000 1 1 1 v 0.0 0.0 0.0 mag 0.0 
0.7063240000 0.3473380000 0.3737790000 1 1 1 v 0.0 0.0 0.0 mag 0.0 
0.9564240000 0.3475500000 0.3735250000 1 1 1 v 0.0 0.0 0.0 mag 0.0 
0.2059260000 0.3464940000 0.6243750000 1 1 1 v 0.0 0.0 0.0 mag 0.0 
0.4564010000 0.3465230000 0.6237240000 1 1 1 v 0.0 0.0 0.0 mag 0.0 
0.7085540000 0.3465120000 0.6251490000 1 1 1 v 0.0 0.0 0.0 mag 0.0 
0.9563170000 0.3474290000 0.6226040000 1 1 1 v 0.0 0.0 0.0 mag 0.0 
0.2063290000 0.3474030000 0.8737670000 1 1 1 v 0.0 0.0 0.0 mag 0.0 
0.4557300000 0.3464900000 0.8741990000 1 1 1 v 0.0 0.0 0.0 mag 0.0 
0.7091840000 0.3464190000 0.8748340000 1 1 1 v 0.0 0.0 0.0 mag 0.0 
0.9584970000 0.3472330000 0.8741660000 1 1 1 v 0.0 0.0 0.0 mag 0.0 
0.0405210000 0.4755070000 0.0397140000 1 1 1 v 0.0 0.0 0.0 mag 0.0 
0.2896680000 0.4752830000 0.0393010000 1 1 1 v 0.0 0.0 0.0 mag 0.0 
0.5399490000 0.4753550000 0.0422050000 1 1 1 v 0.0 0.0 0.0 mag 0.0 
0.7920230000 0.4755690000 0.0423300000 1 1 1 v 0.0 0.0 0.0 mag 0.0 
0.0378660000 0.4755670000 0.2881890000 1 1 1 v 0.0 0.0 0.0 mag 0.0 
0.2888500000 0.4738890000 0.2888470000 1 1 1 v 0.0 0.0 0.0 mag 0.0 
0.5393510000 0.4751140000 0.2887610000 1 1 1 v 0.0 0.0 0.0 mag 0.0 
0.7895480000 0.4748730000 0.2906470000 1 1 1 v 0.0 0.0 0.0 mag 0.0 
0.0379940000 0.4753430000 0.5402470000 1 1 1 v 0.0 0.0 0.0 mag 0.0 
0.2825120000 0.4690930000 0.5360510000 1 1 1 v 0.0 0.0 0.0 mag 0.0 
0.5429780000 0.4683860000 0.5371870000 1 1 1 v 0.0 0.0 0.0 mag 0.0 
0.7914460000 0.4751150000 0.5408560000 1 1 1 v 0.0 0.0 0.0 mag 0.0 
0.0409250000 0.4752870000 0.7905530000 1 1 1 v 0.0 0.0 0.0 mag 0.0 
0.2906320000 0.4742590000 0.7895520000 1 1 1 v 0.0 0.0 0.0 mag 0.0 
0.5441600000 0.4690700000 0.7977140000 1 1 1 v 0.0 0.0 0.0 mag 0.0 
0.7913770000 0.4738610000 0.7913500000 1 1 1 v 0.0 0.0 0.0 mag 0.0 

