ATOMIC_SPECIES
C   12.011        C_ONCV_PBE-1.0.upf
Pt  195.084       Pt_ONCV_PBE-1.0.upf
H   1.008         H_ONCV_PBE-1.0.upf

NUMERICAL_ORBITAL
C_gga_7au_100Ry_2s2p1d.orb
Pt_gga_7au_100Ry_4s2p2d1f.orb
H_gga_6au_100Ry_2s1p.orb

LATTICE_CONSTANT
1.8897261258369282 

LATTICE_VECTORS
12.322700000      0.0000000000      0.0000000000      
0.0000000000      20.000000000      0.0000000000      
-6.161540000      0.0000000000      10.671500000      

ATOMIC_POSITIONS
Direct

C
0.0000000000
54
0.0160170000 0.5035040000 0.0231700000 1 1 1 v 0.0 0.0 0.0 mag 0.0 
0.1498710000 0.5032510000 0.0919330000 1 1 1 v 0.0 0.0 0.0 mag 0.0 
0.2184330000 0.5025860000 0.0276760000 1 1 1 v 0.0 0.0 0.0 mag 0.0 
0.3523320000 0.5044400000 0.0963150000 1 1 1 v 0.0 0.0 0.0 mag 0.0 
0.4176780000 0.5020210000 0.0276950000 1 1 1 v 0.0 0.0 0.0 mag 0.0 
0.5504010000 0.5026680000 0.0919080000 1 1 1 v 0.0 0.0 0.0 mag 0.0 
0.6154560000 0.5028950000 0.0230770000 1 1 1 v 0.0 0.0 0.0 mag 0.0 
0.7482500000 0.5022810000 0.0873760000 1 1 1 v 0.0 0.0 0.0 mag 0.0 
0.8134770000 0.5048990000 0.0187770000 1 1 1 v 0.0 0.0 0.0 mag 0.0 
0.9474430000 0.5026870000 0.0873910000 1 1 1 v 0.0 0.0 0.0 mag 0.0 
0.0137210000 0.4988230000 0.2209100000 1 1 1 v 0.0 0.0 0.0 mag 0.0 
0.1463150000 0.5001470000 0.2888680000 1 1 1 v 0.0 0.0 0.0 mag 0.0 
0.2155120000 0.5045120000 0.2253150000 1 1 1 v 0.0 0.0 0.0 mag 0.0 
0.3490730000 0.5109270000 0.2954870000 1 1 1 v 0.0 0.0 0.0 mag 0.0 
0.4189270000 0.5097690000 0.2299400000 1 1 1 v 0.0 0.0 0.0 mag 0.0 
0.5542530000 0.5095480000 0.2956010000 1 1 1 v 0.0 0.0 0.0 mag 0.0 
0.6178810000 0.5038730000 0.2254690000 1 1 1 v 0.0 0.0 0.0 mag 0.0 
0.7507210000 0.4998880000 0.2891320000 1 1 1 v 0.0 0.0 0.0 mag 0.0 
0.8153870000 0.4985820000 0.2210270000 1 1 1 v 0.0 0.0 0.0 mag 0.0 
0.9481580000 0.4958990000 0.2882440000 1 1 1 v 0.0 0.0 0.0 mag 0.0 
0.0151680000 0.4925830000 0.4223070000 1 1 1 v 0.0 0.0 0.0 mag 0.0 
0.1467020000 0.4930280000 0.4904900000 1 1 1 v 0.0 0.0 0.0 mag 0.0 
0.2101460000 0.4981710000 0.4222370000 1 1 1 v 0.0 0.0 0.0 mag 0.0 
0.3392110000 0.5069030000 0.4896510000 1 1 1 v 0.0 0.0 0.0 mag 0.0 
0.4069940000 0.5185790000 0.4273540000 1 1 1 v 0.0 0.0 0.0 mag 0.0 
0.6281010000 0.5156540000 0.4278130000 1 1 1 v 0.0 0.0 0.0 mag 0.0 
0.7585000000 0.5062190000 0.4902440000 1 1 1 v 0.0 0.0 0.0 mag 0.0 
0.8202550000 0.4985060000 0.4225010000 1 1 1 v 0.0 0.0 0.0 mag 0.0 
0.9519700000 0.4935670000 0.4906060000 1 1 1 v 0.0 0.0 0.0 mag 0.0 
0.0189890000 0.4937600000 0.6245600000 1 1 1 v 0.0 0.0 0.0 mag 0.0 
0.1504950000 0.4928800000 0.6927120000 1 1 1 v 0.0 0.0 0.0 mag 0.0 
0.2136900000 0.4931860000 0.6243630000 1 1 1 v 0.0 0.0 0.0 mag 0.0 
0.3454480000 0.4983070000 0.6924240000 1 1 1 v 0.0 0.0 0.0 mag 0.0 
0.4068830000 0.5065610000 0.6246670000 1 1 1 v 0.0 0.0 0.0 mag 0.0 
0.5373410000 0.5174830000 0.6870160000 1 1 1 v 0.0 0.0 0.0 mag 0.0 
0.7584510000 0.5178920000 0.6878620000 1 1 1 v 0.0 0.0 0.0 mag 0.0 
0.8262250000 0.5071180000 0.6254670000 1 1 1 v 0.0 0.0 0.0 mag 0.0 
0.9555980000 0.4991460000 0.6928500000 1 1 1 v 0.0 0.0 0.0 mag 0.0 
0.0194380000 0.5009980000 0.8261220000 1 1 1 v 0.0 0.0 0.0 mag 0.0 
0.1521360000 0.4992680000 0.8941080000 1 1 1 v 0.0 0.0 0.0 mag 0.0 
0.2175850000 0.4961980000 0.8267830000 1 1 1 v 0.0 0.0 0.0 mag 0.0 
0.3505460000 0.4986060000 0.8940260000 1 1 1 v 0.0 0.0 0.0 mag 0.0 
0.4150850000 0.5000620000 0.8259290000 1 1 1 v 0.0 0.0 0.0 mag 0.0 
0.5479660000 0.5044250000 0.8895470000 1 1 1 v 0.0 0.0 0.0 mag 0.0 
0.6115480000 0.5106260000 0.8194390000 1 1 1 v 0.0 0.0 0.0 mag 0.0 
0.7467440000 0.5105110000 0.8851500000 1 1 1 v 0.0 0.0 0.0 mag 0.0 
0.8167670000 0.5113380000 0.8196890000 1 1 1 v 0.0 0.0 0.0 mag 0.0 
0.9503390000 0.5051930000 0.8897770000 1 1 1 v 0.0 0.0 0.0 mag 0.0 
0.6410630000 0.6823740000 0.5466310000 1 1 1 v 0.0 0.0 0.0 mag 0.0 
0.7725280000 0.6899260000 0.6593100000 1 1 1 v 0.0 0.0 0.0 mag 0.0 
0.7982940000 0.7641910000 0.6915590000 1 1 1 v 0.0 0.0 0.0 mag 0.0 
0.6987620000 0.7953850000 0.7159790000 1 1 1 v 0.0 0.0 0.0 mag 0.0 
0.5649280000 0.7820780000 0.6091810000 1 1 1 v 0.0 0.0 0.0 mag 0.0 
0.5430220000 0.7075490000 0.5779900000 1 1 1 v 0.0 0.0 0.0 mag 0.0 

Pt
0.0000000000
1
0.5825470000 0.5352000000 0.5577270000 1 1 1 v 0.0 0.0 0.0 mag 0.0 

H
0.0000000000
12
0.4963960000 0.8018870000 0.6332160000 1 1 1 v 0.0 0.0 0.0 mag 0.0 
0.6339780000 0.7108210000 0.4668210000 1 1 1 v 0.0 0.0 0.0 mag 0.0 
0.8434040000 0.6678280000 0.6408480000 1 1 1 v 0.0 0.0 0.0 mag 0.0 
0.7787000000 0.6624600000 0.7398290000 1 1 1 v 0.0 0.0 0.0 mag 0.0 
0.8922900000 0.7716130000 0.7729540000 1 1 1 v 0.0 0.0 0.0 mag 0.0 
0.7973570000 0.7898250000 0.6119230000 1 1 1 v 0.0 0.0 0.0 mag 0.0 
0.7147110000 0.8494900000 0.7311120000 1 1 1 v 0.0 0.0 0.0 mag 0.0 
0.7092170000 0.7744030000 0.8034060000 1 1 1 v 0.0 0.0 0.0 mag 0.0 
0.5493180000 0.8088950000 0.5244150000 1 1 1 v 0.0 0.0 0.0 mag 0.0 
0.4475830000 0.6982510000 0.5003770000 1 1 1 v 0.0 0.0 0.0 mag 0.0 
0.5518710000 0.6797070000 0.6593500000 1 1 1 v 0.0 0.0 0.0 mag 0.0 
0.6219250000 0.6299910000 0.5110610000 1 1 1 v 0.0 0.0 0.0 mag 0.0 

