ATOMIC_SPECIES
C   12.011        C_ONCV_PBE-1.0.upf
O   15.999        O_ONCV_PBE-1.0.upf
Pt  195.084       Pt_ONCV_PBE-1.0.upf

NUMERICAL_ORBITAL
C_gga_7au_100Ry_2s2p1d.orb
O_gga_7au_100Ry_2s2p1d.orb
Pt_gga_7au_100Ry_4s2p2d1f.orb

LATTICE_CONSTANT
1.889726

LATTICE_VECTORS
11.187398000      0.0000000000      0.0000000000      
0.0000000000      18.850897000      0.0000000000      
-5.593699000      0.0000000000      9.6885710000      

ATOMIC_POSITIONS
Direct

C
0.0000000000
1
0.3962480000 0.4042150000 0.6837430000 1 1 1 mag 0.0 

O
0.0000000000
1
0.4251830000 0.4458980000 0.5479590000 1 1 1 mag 0.0 

Pt
0.0000000000
64
0.0451310000 0.9998610000 0.0225280000 0 0 0 mag 0.0 
0.2949110000 0.9997800000 0.0224620000 0 0 0 mag 0.0 
0.5449540000 0.9996680000 0.0225190000 0 0 0 mag 0.0 
0.7951080000 0.9997000000 0.0225730000 0 0 0 mag 0.0 
0.0450280000 0.9997900000 0.2725260000 0 0 0 mag 0.0 
0.2949250000 0.9997440000 0.2724500000 0 0 0 mag 0.0 
0.5449590000 0.9997240000 0.2725350000 0 0 0 mag 0.0 
0.7950390000 0.9997830000 0.2725700000 0 0 0 mag 0.0 
0.2949060000 0.9997160000 0.5224380000 0 0 0 mag 0.0 
0.5449750000 0.9996630000 0.5224680000 0 0 0 mag 0.0 
0.7950720000 0.9998040000 0.5225340000 0 0 0 mag 0.0 
0.0449920000 0.9998380000 0.5224830000 0 0 0 mag 0.0 
0.0451100000 0.9999260000 0.7725080000 0 0 0 mag 0.0 
0.2949040000 0.9997320000 0.7724540000 0 0 0 mag 0.0 
0.5449740000 0.9996130000 0.7724880000 0 0 0 mag 0.0 
0.7951370000 0.9997220000 0.7725320000 0 0 0 mag 0.0 
0.8796370000 0.1198100000 0.1885670000 1 1 1 mag 0.0 
0.8786120000 0.1203060000 0.4381180000 1 1 1 mag 0.0 
0.8807780000 0.1194950000 0.9381450000 1 1 1 mag 0.0 
0.6286190000 0.1201490000 0.1881550000 1 1 1 mag 0.0 
0.3802560000 0.1197510000 0.1897470000 1 1 1 mag 0.0 
0.1304160000 0.1197590000 0.1883200000 1 1 1 mag 0.0 
0.8777710000 0.1210800000 0.6863730000 1 1 1 mag 0.0 
0.1295990000 0.1205430000 0.9370040000 1 1 1 mag 0.0 
0.6283370000 0.1217060000 0.4391400000 1 1 1 mag 0.0 
0.3784170000 0.1210290000 0.9375570000 1 1 1 mag 0.0 
0.1300730000 0.1201100000 0.4398830000 1 1 1 mag 0.0 
0.6289050000 0.1198800000 0.9377690000 1 1 1 mag 0.0 
0.6291320000 0.1212250000 0.6882030000 1 1 1 mag 0.0 
0.1292660000 0.1217330000 0.6883500000 1 1 1 mag 0.0 
0.3796570000 0.1210540000 0.4397190000 1 1 1 mag 0.0 
0.3791340000 0.1219470000 0.6885920000 1 1 1 mag 0.0 
0.9646900000 0.2380850000 0.8533220000 1 1 1 mag 0.0 
0.9644090000 0.2370520000 0.1038420000 1 1 1 mag 0.0 
0.9623930000 0.2378300000 0.3551770000 1 1 1 mag 0.0 
0.4632370000 0.2383850000 0.1063560000 1 1 1 mag 0.0 
0.7135730000 0.2379780000 0.1056310000 1 1 1 mag 0.0 
0.7123470000 0.2389860000 0.3555950000 1 1 1 mag 0.0 
0.9609000000 0.2393530000 0.6043150000 1 1 1 mag 0.0 
0.2140660000 0.2371820000 0.1023730000 1 1 1 mag 0.0 
0.4622700000 0.2406460000 0.3573130000 1 1 1 mag 0.0 
0.2152970000 0.2419980000 0.8513860000 1 1 1 mag 0.0 
0.7161250000 0.2378300000 0.8570610000 1 1 1 mag 0.0 
0.7080160000 0.2431220000 0.6036140000 1 1 1 mag 0.0 
0.2110120000 0.2378130000 0.3540710000 1 1 1 mag 0.0 
0.4629170000 0.2405040000 0.8557060000 1 1 1 mag 0.0 
0.4638020000 0.2419990000 0.6066230000 1 1 1 mag 0.0 
0.2144300000 0.2422040000 0.6040970000 1 1 1 mag 0.0 
0.0406550000 0.3579160000 0.2668230000 1 1 1 mag 0.0 
0.5468650000 0.3595710000 0.2758350000 1 1 1 mag 0.0 
0.0402230000 0.3588180000 0.5198670000 1 1 1 mag 0.0 
0.5509000000 0.3588710000 0.0309970000 1 1 1 mag 0.0 
0.0483810000 0.3590950000 0.0208370000 1 1 1 mag 0.0 
0.7962580000 0.3594520000 0.2745500000 1 1 1 mag 0.0 
0.2991590000 0.3603220000 0.0224610000 1 1 1 mag 0.0 
0.8075440000 0.3606720000 0.7797220000 1 1 1 mag 0.0 
0.8040450000 0.3592190000 0.0300140000 1 1 1 mag 0.0 
0.7961650000 0.3611600000 0.5240030000 1 1 1 mag 0.0 
0.0481450000 0.3608800000 0.7721390000 1 1 1 mag 0.0 
0.2921620000 0.3573380000 0.2614100000 1 1 1 mag 0.0 
0.5587980000 0.3703300000 0.5388060000 1 1 1 mag 0.0 
0.5699080000 0.3587310000 0.7931440000 1 1 1 mag 0.0 
0.2931930000 0.3715090000 0.7742600000 1 1 1 mag 0.0 
0.2832600000 0.3612720000 0.4993340000 1 1 1 mag 0.0 

