ATOMIC_SPECIES
C   12.011        C_ONCV_PBE-1.0.upf
Pt  195.084       Pt_ONCV_PBE-1.0.upf
H   1.008         H_ONCV_PBE-1.0.upf

NUMERICAL_ORBITAL
C_gga_7au_100Ry_2s2p1d.orb
Pt_gga_7au_100Ry_4s2p2d1f.orb
H_gga_6au_100Ry_2s1p.orb

LATTICE_CONSTANT
1.8897261258369282 

LATTICE_VECTORS
12.322700000      0.0000000000      0.0000000000      
0.0000000000      20.000000000      0.0000000000      
-6.161540000      0.0000000000      10.671500000      

ATOMIC_POSITIONS
Direct

C
0.0000000000
54
0.0235340000 0.4929080000 0.0286880000 1 1 1 v 0.0 0.0 0.0 mag 0.0 
0.1575160000 0.4927690000 0.0975890000 1 1 1 v 0.0 0.0 0.0 mag 0.0 
0.2261000000 0.4920580000 0.0333630000 1 1 1 v 0.0 0.0 0.0 mag 0.0 
0.3600700000 0.4947320000 0.1020890000 1 1 1 v 0.0 0.0 0.0 mag 0.0 
0.4252900000 0.4921540000 0.0333610000 1 1 1 v 0.0 0.0 0.0 mag 0.0 
0.5580240000 0.4932680000 0.0976180000 1 1 1 v 0.0 0.0 0.0 mag 0.0 
0.6230370000 0.4933140000 0.0286500000 1 1 1 v 0.0 0.0 0.0 mag 0.0 
0.7557800000 0.4923550000 0.0929330000 1 1 1 v 0.0 0.0 0.0 mag 0.0 
0.8209920000 0.4949720000 0.0242220000 1 1 1 v 0.0 0.0 0.0 mag 0.0 
0.9549630000 0.4921660000 0.0929290000 1 1 1 v 0.0 0.0 0.0 mag 0.0 
0.0212910000 0.4881440000 0.2264780000 1 1 1 v 0.0 0.0 0.0 mag 0.0 
0.1540190000 0.4900000000 0.2945330000 1 1 1 v 0.0 0.0 0.0 mag 0.0 
0.2232110000 0.4948270000 0.2310250000 1 1 1 v 0.0 0.0 0.0 mag 0.0 
0.3566030000 0.5029140000 0.3011490000 1 1 1 v 0.0 0.0 0.0 mag 0.0 
0.4265940000 0.5015680000 0.2356140000 1 1 1 v 0.0 0.0 0.0 mag 0.0 
0.5619360000 0.5022680000 0.3014190000 1 1 1 v 0.0 0.0 0.0 mag 0.0 
0.6254510000 0.4952170000 0.2312680000 1 1 1 v 0.0 0.0 0.0 mag 0.0 
0.7583140000 0.4905370000 0.2948670000 1 1 1 v 0.0 0.0 0.0 mag 0.0 
0.8228670000 0.4884250000 0.2266590000 1 1 1 v 0.0 0.0 0.0 mag 0.0 
0.9557610000 0.4852380000 0.2938630000 1 1 1 v 0.0 0.0 0.0 mag 0.0 
0.0228230000 0.4817140000 0.4279490000 1 1 1 v 0.0 0.0 0.0 mag 0.0 
0.1545290000 0.4824030000 0.4960760000 1 1 1 v 0.0 0.0 0.0 mag 0.0 
0.2180240000 0.4884180000 0.4278780000 1 1 1 v 0.0 0.0 0.0 mag 0.0 
0.3469220000 0.4989520000 0.4950950000 1 1 1 v 0.0 0.0 0.0 mag 0.0 
0.4143340000 0.5120240000 0.4327920000 1 1 1 v 0.0 0.0 0.0 mag 0.0 
0.6361590000 0.5104690000 0.4336960000 1 1 1 v 0.0 0.0 0.0 mag 0.0 
0.7663490000 0.4989940000 0.4960390000 1 1 1 v 0.0 0.0 0.0 mag 0.0 
0.8278040000 0.4891600000 0.4283410000 1 1 1 v 0.0 0.0 0.0 mag 0.0 
0.9594770000 0.4829600000 0.4962660000 1 1 1 v 0.0 0.0 0.0 mag 0.0 
0.0264980000 0.4828390000 0.6302160000 1 1 1 v 0.0 0.0 0.0 mag 0.0 
0.1581820000 0.4817060000 0.6983210000 1 1 1 v 0.0 0.0 0.0 mag 0.0 
0.2215700000 0.4825310000 0.6300180000 1 1 1 v 0.0 0.0 0.0 mag 0.0 
0.3532960000 0.4885880000 0.6979440000 1 1 1 v 0.0 0.0 0.0 mag 0.0 
0.4146960000 0.4984660000 0.6302360000 1 1 1 v 0.0 0.0 0.0 mag 0.0 
0.5448130000 0.5104660000 0.6924950000 1 1 1 v 0.0 0.0 0.0 mag 0.0 
0.7666150000 0.5123440000 0.6935250000 1 1 1 v 0.0 0.0 0.0 mag 0.0 
0.8341050000 0.4995850000 0.6312160000 1 1 1 v 0.0 0.0 0.0 mag 0.0 
0.9630290000 0.4890660000 0.6984150000 1 1 1 v 0.0 0.0 0.0 mag 0.0 
0.0270370000 0.4904560000 0.8317570000 1 1 1 v 0.0 0.0 0.0 mag 0.0 
0.1597690000 0.4882670000 0.8997890000 1 1 1 v 0.0 0.0 0.0 mag 0.0 
0.2252620000 0.4851710000 0.8324110000 1 1 1 v 0.0 0.0 0.0 mag 0.0 
0.3582130000 0.4881680000 0.8996390000 1 1 1 v 0.0 0.0 0.0 mag 0.0 
0.4227700000 0.4901940000 0.8314400000 1 1 1 v 0.0 0.0 0.0 mag 0.0 
0.5556200000 0.4951210000 0.8950010000 1 1 1 v 0.0 0.0 0.0 mag 0.0 
0.6191270000 0.5023480000 0.8248530000 1 1 1 v 0.0 0.0 0.0 mag 0.0 
0.7544380000 0.5018540000 0.8906960000 1 1 1 v 0.0 0.0 0.0 mag 0.0 
0.8244500000 0.5033200000 0.8251640000 1 1 1 v 0.0 0.0 0.0 mag 0.0 
0.9578440000 0.4952430000 0.8952670000 1 1 1 v 0.0 0.0 0.0 mag 0.0 
0.6218620000 0.6963950000 0.5498130000 1 1 1 v 0.0 0.0 0.0 mag 0.0 
0.7602990000 0.7057270000 0.6471120000 1 1 1 v 0.0 0.0 0.0 mag 0.0 
0.7830330000 0.7745020000 0.7093610000 1 1 1 v 0.0 0.0 0.0 mag 0.0 
0.6992160000 0.7854850000 0.7668150000 1 1 1 v 0.0 0.0 0.0 mag 0.0 
0.5606010000 0.7749040000 0.6701650000 1 1 1 v 0.0 0.0 0.0 mag 0.0 
0.5387070000 0.7061700000 0.6080790000 1 1 1 v 0.0 0.0 0.0 mag 0.0 

Pt
0.0000000000
1
0.5903760000 0.5301780000 0.5631680000 1 1 1 v 0.0 0.0 0.0 mag 0.0 

H
0.0000000000
12
0.5026720000 0.7808860000 0.7143460000 1 1 1 v 0.0 0.0 0.0 mag 0.0 
0.5945770000 0.7323130000 0.4725360000 1 1 1 v 0.0 0.0 0.0 mag 0.0 
0.8188950000 0.6990160000 0.6038170000 1 1 1 v 0.0 0.0 0.0 mag 0.0 
0.7885980000 0.6664220000 0.7190570000 1 1 1 v 0.0 0.0 0.0 mag 0.0 
0.8822100000 0.7803110000 0.7812130000 1 1 1 v 0.0 0.0 0.0 mag 0.0 
0.7627590000 0.8134640000 0.6383810000 1 1 1 v 0.0 0.0 0.0 mag 0.0 
0.7139260000 0.8358880000 0.8074540000 1 1 1 v 0.0 0.0 0.0 mag 0.0 
0.7267060000 0.7499930000 0.8447580000 1 1 1 v 0.0 0.0 0.0 mag 0.0 
0.5301200000 0.8138950000 0.5974130000 1 1 1 v 0.0 0.0 0.0 mag 0.0 
0.4394820000 0.6994920000 0.5370350000 1 1 1 v 0.0 0.0 0.0 mag 0.0 
0.5609200000 0.6669320000 0.6791070000 1 1 1 v 0.0 0.0 0.0 mag 0.0 
0.6065380000 0.6460400000 0.5074450000 1 1 1 v 0.0 0.0 0.0 mag 0.0 

