ATOMIC_SPECIES
C   12.011        C_ONCV_PBE-1.0.upf
O   15.999        O_ONCV_PBE-1.0.upf
Pt  195.084       Pt_ONCV_PBE-1.0.upf

NUMERICAL_ORBITAL
C_gga_7au_100Ry_2s2p1d.orb
O_gga_7au_100Ry_2s2p1d.orb
Pt_gga_7au_100Ry_4s2p2d1f.orb

LATTICE_CONSTANT
1.8897261258369282 

LATTICE_VECTORS
11.187400000      0.0000000000      0.0000000000      
0.0000000000      18.850900000      0.0000000000      
-5.593700000      0.0000000000      9.6885700000      

ATOMIC_POSITIONS
Direct

C
0.0000000000
1
0.5457800000 0.4438030000 0.6473680000 1 1 1 v 0.0 0.0 0.0 mag 0.0 

O
0.0000000000
1
0.5456640000 0.5064460000 0.6472950000 1 1 1 v 0.0 0.0 0.0 mag 0.0 

Pt
0.0000000000
64
0.0445520000 0.0000000000 0.0222760000 0 0 0 v 0.0 0.0 0.0 mag 0.0 
0.2945520000 0.0000000000 0.0222760000 0 0 0 v 0.0 0.0 0.0 mag 0.0 
0.5445520000 0.0000000000 0.0222760000 0 0 0 v 0.0 0.0 0.0 mag 0.0 
0.7945520000 0.0000000000 0.0222760000 0 0 0 v 0.0 0.0 0.0 mag 0.0 
0.0445520000 0.0000000000 0.2722760000 0 0 0 v 0.0 0.0 0.0 mag 0.0 
0.2945520000 0.0000000000 0.2722760000 0 0 0 v 0.0 0.0 0.0 mag 0.0 
0.5445520000 0.0000000000 0.2722760000 0 0 0 v 0.0 0.0 0.0 mag 0.0 
0.7945520000 0.0000000000 0.2722760000 0 0 0 v 0.0 0.0 0.0 mag 0.0 
0.2945520000 0.0000000000 0.5222760000 0 0 0 v 0.0 0.0 0.0 mag 0.0 
0.5445520000 0.0000000000 0.5222760000 0 0 0 v 0.0 0.0 0.0 mag 0.0 
0.7945520000 0.0000000000 0.5222760000 0 0 0 v 0.0 0.0 0.0 mag 0.0 
0.0445520000 0.0000000000 0.5222760000 0 0 0 v 0.0 0.0 0.0 mag 0.0 
0.0445520000 0.0000000000 0.7722760000 0 0 0 v 0.0 0.0 0.0 mag 0.0 
0.2945520000 0.0000000000 0.7722760000 0 0 0 v 0.0 0.0 0.0 mag 0.0 
0.5445520000 0.0000000000 0.7722760000 0 0 0 v 0.0 0.0 0.0 mag 0.0 
0.7945520000 0.0000000000 0.7722760000 0 0 0 v 0.0 0.0 0.0 mag 0.0 
0.8775120000 0.1206160000 0.1884140000 1 1 1 v 0.0 0.0 0.0 mag 0.0 
0.8775120000 0.1206200000 0.4387950000 1 1 1 v 0.0 0.0 0.0 mag 0.0 
0.8770600000 0.1200930000 0.9383300000 1 1 1 v 0.0 0.0 0.0 mag 0.0 
0.6278120000 0.1206050000 0.1887580000 1 1 1 v 0.0 0.0 0.0 mag 0.0 
0.3781260000 0.1205770000 0.1886130000 1 1 1 v 0.0 0.0 0.0 mag 0.0 
0.1279340000 0.1204670000 0.1884790000 1 1 1 v 0.0 0.0 0.0 mag 0.0 
0.8770620000 0.1200890000 0.6884810000 1 1 1 v 0.0 0.0 0.0 mag 0.0 
0.1281630000 0.1205500000 0.9389770000 1 1 1 v 0.0 0.0 0.0 mag 0.0 
0.6269690000 0.1214140000 0.4387860000 1 1 1 v 0.0 0.0 0.0 mag 0.0 
0.3781430000 0.1205740000 0.9392820000 1 1 1 v 0.0 0.0 0.0 mag 0.0 
0.1280990000 0.1203520000 0.4389040000 1 1 1 v 0.0 0.0 0.0 mag 0.0 
0.6269880000 0.1214220000 0.9379180000 1 1 1 v 0.0 0.0 0.0 mag 0.0 
0.6271770000 0.1218400000 0.6884630000 1 1 1 v 0.0 0.0 0.0 mag 0.0 
0.1279510000 0.1204710000 0.6892130000 1 1 1 v 0.0 0.0 0.0 mag 0.0 
0.3780420000 0.1210290000 0.4385680000 1 1 1 v 0.0 0.0 0.0 mag 0.0 
0.3780520000 0.1210310000 0.6892270000 1 1 1 v 0.0 0.0 0.0 mag 0.0 
0.9606650000 0.2380740000 0.8551130000 1 1 1 v 0.0 0.0 0.0 mag 0.0 
0.9603850000 0.2386370000 0.1041840000 1 1 1 v 0.0 0.0 0.0 mag 0.0 
0.9602910000 0.2389410000 0.3548840000 1 1 1 v 0.0 0.0 0.0 mag 0.0 
0.4612570000 0.2391230000 0.1053840000 1 1 1 v 0.0 0.0 0.0 mag 0.0 
0.7104280000 0.2391640000 0.1048290000 1 1 1 v 0.0 0.0 0.0 mag 0.0 
0.7104360000 0.2391520000 0.3551030000 1 1 1 v 0.0 0.0 0.0 mag 0.0 
0.9604120000 0.2386340000 0.6057350000 1 1 1 v 0.0 0.0 0.0 mag 0.0 
0.2118840000 0.2386360000 0.1057350000 1 1 1 v 0.0 0.0 0.0 mag 0.0 
0.4620550000 0.2412990000 0.3585280000 1 1 1 v 0.0 0.0 0.0 mag 0.0 
0.2119100000 0.2386420000 0.8557220000 1 1 1 v 0.0 0.0 0.0 mag 0.0 
0.7095730000 0.2405720000 0.8542680000 1 1 1 v 0.0 0.0 0.0 mag 0.0 
0.7095940000 0.2405550000 0.6048780000 1 1 1 v 0.0 0.0 0.0 mag 0.0 
0.2100360000 0.2387100000 0.3544960000 1 1 1 v 0.0 0.0 0.0 mag 0.0 
0.4620560000 0.2413230000 0.8530820000 1 1 1 v 0.0 0.0 0.0 mag 0.0 
0.4602690000 0.2411320000 0.6049280000 1 1 1 v 0.0 0.0 0.0 mag 0.0 
0.2100410000 0.2387190000 0.6050880000 1 1 1 v 0.0 0.0 0.0 mag 0.0 
0.0417730000 0.3596730000 0.2702870000 1 1 1 v 0.0 0.0 0.0 mag 0.0 
0.5434470000 0.3601830000 0.2717120000 1 1 1 v 0.0 0.0 0.0 mag 0.0 
0.0417780000 0.3596840000 0.5208360000 1 1 1 v 0.0 0.0 0.0 mag 0.0 
0.5434570000 0.3602280000 0.0210400000 1 1 1 v 0.0 0.0 0.0 mag 0.0 
0.0445580000 0.3595300000 0.0222320000 1 1 1 v 0.0 0.0 0.0 mag 0.0 
0.7923790000 0.3599450000 0.2708470000 1 1 1 v 0.0 0.0 0.0 mag 0.0 
0.2942290000 0.3597290000 0.0217980000 1 1 1 v 0.0 0.0 0.0 mag 0.0 
0.8003880000 0.3590910000 0.7749190000 1 1 1 v 0.0 0.0 0.0 mag 0.0 
0.7943990000 0.3597290000 0.0223910000 1 1 1 v 0.0 0.0 0.0 mag 0.0 
0.7944340000 0.3596970000 0.5213940000 1 1 1 v 0.0 0.0 0.0 mag 0.0 
0.0445770000 0.3595250000 0.7717440000 1 1 1 v 0.0 0.0 0.0 mag 0.0 
0.2919970000 0.3596780000 0.2696240000 1 1 1 v 0.0 0.0 0.0 mag 0.0 
0.5414260000 0.3679360000 0.5190680000 1 1 1 v 0.0 0.0 0.0 mag 0.0 
0.5414570000 0.3680290000 0.7716110000 1 1 1 v 0.0 0.0 0.0 mag 0.0 
0.2920480000 0.3597230000 0.7717640000 1 1 1 v 0.0 0.0 0.0 mag 0.0 
0.2860100000 0.3590360000 0.5177050000 1 1 1 v 0.0 0.0 0.0 mag 0.0 

