ATOMIC_SPECIES
C   12.011        C_ONCV_PBE-1.0.upf
Pt  195.084       Pt_ONCV_PBE-1.0.upf
H   1.008         H_ONCV_PBE-1.0.upf

NUMERICAL_ORBITAL
C_gga_7au_100Ry_2s2p1d.orb
Pt_gga_7au_100Ry_4s2p2d1f.orb
H_gga_6au_100Ry_2s1p.orb

LATTICE_CONSTANT
1.889726

LATTICE_VECTORS
12.322696000      0.0000000000      0.0000000000      
0.0000000000      19.999994000      0.0000000000      
-6.161540000      0.0000000000      10.671542000      

ATOMIC_POSITIONS
Direct

C
0.0000000000
54
0.0333060000 0.4966280000 0.0316570000 1 1 1 mag 0.0 
0.1674510000 0.4955680000 0.1005560000 1 1 1 mag 0.0 
0.2351140000 0.4955260000 0.0351600000 1 1 1 mag 0.0 
0.3689600000 0.4982460000 0.1034660000 1 1 1 mag 0.0 
0.4340000000 0.4930310000 0.0349620000 1 1 1 mag 0.0 
0.5671070000 0.4930010000 0.0995680000 1 1 1 mag 0.0 
0.6326900000 0.4895530000 0.0317010000 1 1 1 mag 0.0 
0.7658010000 0.4913190000 0.0962260000 1 1 1 mag 0.0 
0.8312260000 0.4947830000 0.0276820000 1 1 1 mag 0.0 
0.9654250000 0.4937810000 0.0966010000 1 1 1 mag 0.0 
0.0318340000 0.4882710000 0.2298110000 1 1 1 mag 0.0 
0.1654330000 0.4873890000 0.2981250000 1 1 1 mag 0.0 
0.2347420000 0.4935400000 0.2345390000 1 1 1 mag 0.0 
0.3697460000 0.4997610000 0.3053870000 1 1 1 mag 0.0 
0.4363020000 0.5064390000 0.2367220000 1 1 1 mag 0.0 
0.5702380000 0.5137520000 0.2991970000 1 1 1 mag 0.0 
0.6348780000 0.5003850000 0.2323450000 1 1 1 mag 0.0 
0.7679740000 0.4965600000 0.2973970000 1 1 1 mag 0.0 
0.8330030000 0.4907990000 0.2297380000 1 1 1 mag 0.0 
0.9659800000 0.4868750000 0.2970870000 1 1 1 mag 0.0 
0.0321370000 0.4835600000 0.4310810000 1 1 1 mag 0.0 
0.1642390000 0.4798460000 0.4989720000 1 1 1 mag 0.0 
0.2292150000 0.4825710000 0.4312770000 1 1 1 mag 0.0 
0.3608320000 0.4856990000 0.4986560000 1 1 1 mag 0.0 
0.4306700000 0.4964260000 0.4385050000 1 1 1 mag 0.0 
0.6461890000 0.5325230000 0.4277570000 1 1 1 mag 0.0 
0.7754900000 0.5171880000 0.4970630000 1 1 1 mag 0.0 
0.8365870000 0.4988570000 0.4309110000 1 1 1 mag 0.0 
0.9677260000 0.4890700000 0.4988230000 1 1 1 mag 0.0 
0.0346160000 0.4904340000 0.6327650000 1 1 1 mag 0.0 
0.1663710000 0.4837040000 0.7007690000 1 1 1 mag 0.0 
0.2305570000 0.4784180000 0.6332580000 1 1 1 mag 0.0 
0.3629010000 0.4786290000 0.7015590000 1 1 1 mag 0.0 
0.4268730000 0.4842620000 0.6346330000 1 1 1 mag 0.0 
0.5545720000 0.4980330000 0.6978250000 1 1 1 mag 0.0 
0.7755030000 0.5212190000 0.6972770000 1 1 1 mag 0.0 
0.8414560000 0.5150390000 0.6324220000 1 1 1 mag 0.0 
0.9711630000 0.5008940000 0.7000240000 1 1 1 mag 0.0 
0.0352810000 0.4988230000 0.8333660000 1 1 1 mag 0.0 
0.1682970000 0.4932810000 0.9016660000 1 1 1 mag 0.0 
0.2337260000 0.4872220000 0.8346640000 1 1 1 mag 0.0 
0.3667030000 0.4863360000 0.9022180000 1 1 1 mag 0.0 
0.4321070000 0.4825380000 0.8345960000 1 1 1 mag 0.0 
0.5651160000 0.4868730000 0.8984760000 1 1 1 mag 0.0 
0.6290900000 0.4947110000 0.8287980000 1 1 1 mag 0.0 
0.7640630000 0.5006860000 0.8942720000 1 1 1 mag 0.0 
0.8323400000 0.5077700000 0.8281410000 1 1 1 mag 0.0 
0.9666310000 0.5014760000 0.8977550000 1 1 1 mag 0.0 
0.6372270000 0.6368620000 0.6602490000 1 1 1 mag 0.0 
0.7691630000 0.6649200000 0.7337480000 1 1 1 mag 0.0 
0.7650580000 0.7405780000 0.7549550000 1 1 1 mag 0.0 
0.6892280000 0.7558050000 0.8192490000 1 1 1 mag 0.0 
0.5576430000 0.7261850000 0.7455210000 1 1 1 mag 0.0 
0.5627430000 0.6504190000 0.7257940000 1 1 1 mag 0.0 

Pt
0.0000000000
1
0.5956460000 0.5378000000 0.5755910000 1 1 1 mag 0.0 

H
0.0000000000
12
0.5043580000 0.7351240000 0.7938600000 1 1 1 mag 0.0 
0.5892760000 0.6614910000 0.5673580000 1 1 1 mag 0.0 
0.8221220000 0.6554040000 0.6854170000 1 1 1 mag 0.0 
0.8204930000 0.6401610000 0.8254220000 1 1 1 mag 0.0 
0.8612530000 0.7597790000 0.8105660000 1 1 1 mag 0.0 
0.7227960000 0.7666900000 0.6641090000 1 1 1 mag 0.0 
0.6843010000 0.8100640000 0.8305870000 1 1 1 mag 0.0 
0.7373750000 0.7343780000 0.9143490000 1 1 1 mag 0.0 
0.5057020000 0.7511580000 0.6537780000 1 1 1 mag 0.0 
0.4671620000 0.6304080000 0.6718930000 1 1 1 mag 0.0 
0.6074090000 0.6256440000 0.8175420000 1 1 1 mag 0.0 
0.6165280000 0.5817990000 0.4536610000 1 1 1 mag 0.0 

