ATOMIC_SPECIES
C   12.011        C_ONCV_PBE-1.0.upf
Pt  195.084       Pt_ONCV_PBE-1.0.upf
H   1.008         H_ONCV_PBE-1.0.upf

NUMERICAL_ORBITAL
C_gga_7au_100Ry_2s2p1d.orb
Pt_gga_7au_100Ry_4s2p2d1f.orb
H_gga_6au_100Ry_2s1p.orb

LATTICE_CONSTANT
1.889726

LATTICE_VECTORS
12.322696000      0.0000000000      0.0000000000      
0.0000000000      19.999994000      0.0000000000      
-6.161540000      0.0000000000      10.671542000      

ATOMIC_POSITIONS
Direct

C
0.0000000000
54
0.0306290000 0.4946780000 0.0306200000 1 1 1 mag 0.0 
0.1646480000 0.4946840000 0.0997790000 1 1 1 mag 0.0 
0.2332790000 0.4935270000 0.0355720000 1 1 1 mag 0.0 
0.3672200000 0.4966600000 0.1043710000 1 1 1 mag 0.0 
0.4323540000 0.4936370000 0.0355640000 1 1 1 mag 0.0 
0.5651970000 0.4948590000 0.0997700000 1 1 1 mag 0.0 
0.6300850000 0.4949690000 0.0306470000 1 1 1 mag 0.0 
0.7629500000 0.4937510000 0.0948640000 1 1 1 mag 0.0 
0.8280880000 0.4967880000 0.0260770000 1 1 1 mag 0.0 
0.9620170000 0.4935710000 0.0948580000 1 1 1 mag 0.0 
0.0285660000 0.4890240000 0.2284750000 1 1 1 mag 0.0 
0.1613780000 0.4917590000 0.2967800000 1 1 1 mag 0.0 
0.2306740000 0.4972440000 0.2333310000 1 1 1 mag 0.0 
0.3640750000 0.5061540000 0.3035260000 1 1 1 mag 0.0 
0.4339820000 0.5047680000 0.2379010000 1 1 1 mag 0.0 
0.5695210000 0.5059920000 0.3035400000 1 1 1 mag 0.0 
0.6327330000 0.4972280000 0.2333340000 1 1 1 mag 0.0 
0.7655010000 0.4917740000 0.2967560000 1 1 1 mag 0.0 
0.8300210000 0.4891290000 0.2284680000 1 1 1 mag 0.0 
0.9629600000 0.4854570000 0.2957900000 1 1 1 mag 0.0 
0.0300340000 0.4813850000 0.4299360000 1 1 1 mag 0.0 
0.1618370000 0.4829090000 0.4981870000 1 1 1 mag 0.0 
0.2253590000 0.4906070000 0.4302470000 1 1 1 mag 0.0 
0.3538940000 0.5028790000 0.4976870000 1 1 1 mag 0.0 
0.4217220000 0.5161090000 0.4354900000 1 1 1 mag 0.0 
0.6438500000 0.5156460000 0.4355460000 1 1 1 mag 0.0 
0.7738380000 0.5023950000 0.4976860000 1 1 1 mag 0.0 
0.8349910000 0.4904450000 0.4302170000 1 1 1 mag 0.0 
0.9664920000 0.4828490000 0.4981580000 1 1 1 mag 0.0 
0.0334810000 0.4828230000 0.6321910000 1 1 1 mag 0.0 
0.1652870000 0.4814030000 0.7004520000 1 1 1 mag 0.0 
0.2288440000 0.4829520000 0.6322190000 1 1 1 mag 0.0 
0.3603310000 0.4907470000 0.7001620000 1 1 1 mag 0.0 
0.4214160000 0.5030000000 0.6327260000 1 1 1 mag 0.0 
0.5514700000 0.5164130000 0.6949420000 1 1 1 mag 0.0 
0.7734830000 0.5158470000 0.6948930000 1 1 1 mag 0.0 
0.8413370000 0.5024140000 0.6327140000 1 1 1 mag 0.0 
0.9699240000 0.4903610000 0.7001550000 1 1 1 mag 0.0 
0.0339130000 0.4916440000 0.8336350000 1 1 1 mag 0.0 
0.1667360000 0.4889800000 0.9019530000 1 1 1 mag 0.0 
0.2323380000 0.4854500000 0.8346140000 1 1 1 mag 0.0 
0.3652870000 0.4891390000 0.9019360000 1 1 1 mag 0.0 
0.4297890000 0.4919920000 0.8336460000 1 1 1 mag 0.0 
0.5625400000 0.4975600000 0.8971030000 1 1 1 mag 0.0 
0.6257720000 0.5064740000 0.8269420000 1 1 1 mag 0.0 
0.7612990000 0.5049570000 0.8925390000 1 1 1 mag 0.0 
0.8311820000 0.5060870000 0.8269030000 1 1 1 mag 0.0 
0.9645940000 0.4971560000 0.8970680000 1 1 1 mag 0.0 
0.5757980000 0.7062460000 0.5118270000 1 1 1 mag 0.0 
0.7131910000 0.7278590000 0.5793790000 1 1 1 mag 0.0 
0.7252820000 0.8036800000 0.5998390000 1 1 1 mag 0.0 
0.6582430000 0.8275210000 0.6692080000 1 1 1 mag 0.0 
0.5208000000 0.8054520000 0.6017340000 1 1 1 mag 0.0 
0.5088400000 0.7296480000 0.5812350000 1 1 1 mag 0.0 

Pt
0.0000000000
1
0.5977690000 0.5350560000 0.5653210000 1 1 1 mag 0.0 

H
0.0000000000
12
0.4753210000 0.8213360000 0.6548100000 1 1 1 mag 0.0 
0.5275690000 0.7264240000 0.4156900000 1 1 1 mag 0.0 
0.7586190000 0.7117780000 0.5263750000 1 1 1 mag 0.0 
0.7630730000 0.7023300000 0.6708650000 1 1 1 mag 0.0 
0.8245400000 0.8183990000 0.6515000000 1 1 1 mag 0.0 
0.6837270000 0.8288810000 0.5080550000 1 1 1 mag 0.0 
0.6648640000 0.8822110000 0.6797710000 1 1 1 mag 0.0 
0.7061980000 0.8065560000 0.7647750000 1 1 1 mag 0.0 
0.4704110000 0.8307830000 0.5100900000 1 1 1 mag 0.0 
0.4096940000 0.7147410000 0.5295610000 1 1 1 mag 0.0 
0.5506350000 0.7041960000 0.6728000000 1 1 1 mag 0.0 
0.5695170000 0.6510640000 0.5020170000 1 1 1 mag 0.0 

