ATOMIC_SPECIES
C   12.011        C_ONCV_PBE-1.0.upf
Pt  195.084       Pt_ONCV_PBE-1.0.upf
H   1.008         H_ONCV_PBE-1.0.upf

NUMERICAL_ORBITAL
C_gga_7au_100Ry_2s2p1d.orb
Pt_gga_7au_100Ry_4s2p2d1f.orb
H_gga_6au_100Ry_2s1p.orb

LATTICE_CONSTANT
1.889726

LATTICE_VECTORS
12.322696000      0.0000000000      0.0000000000      
0.0000000000      19.999994000      0.0000000000      
-6.161540000      0.0000000000      10.671542000      

ATOMIC_POSITIONS
Direct

C
0.0000000000
54
0.0261750000 0.5030000000 0.0286580000 1 1 1 mag 0.0 
0.1598090000 0.5008160000 0.0965550000 1 1 1 mag 0.0 
0.2278680000 0.5020450000 0.0314620000 1 1 1 mag 0.0 
0.3616310000 0.5036320000 0.0995480000 1 1 1 mag 0.0 
0.4273890000 0.5022130000 0.0312990000 1 1 1 mag 0.0 
0.5603430000 0.5029210000 0.0967570000 1 1 1 mag 0.0 
0.6260250000 0.5015250000 0.0284670000 1 1 1 mag 0.0 
0.7590520000 0.5017580000 0.0940710000 1 1 1 mag 0.0 
0.8246780000 0.5039440000 0.0258980000 1 1 1 mag 0.0 
0.9584950000 0.5018390000 0.0941400000 1 1 1 mag 0.0 
0.0244890000 0.4968470000 0.2271160000 1 1 1 mag 0.0 
0.1576760000 0.4940820000 0.2946330000 1 1 1 mag 0.0 
0.2258860000 0.4977660000 0.2298740000 1 1 1 mag 0.0 
0.3602530000 0.5012060000 0.2994940000 1 1 1 mag 0.0 
0.4278810000 0.5063000000 0.2327530000 1 1 1 mag 0.0 
0.5620290000 0.5097520000 0.2997070000 1 1 1 mag 0.0 
0.6276140000 0.5053990000 0.2305630000 1 1 1 mag 0.0 
0.7605030000 0.5024570000 0.2952840000 1 1 1 mag 0.0 
0.8259130000 0.5000150000 0.2274290000 1 1 1 mag 0.0 
0.9587630000 0.4964810000 0.2945310000 1 1 1 mag 0.0 
0.0256520000 0.4942380000 0.4283060000 1 1 1 mag 0.0 
0.1578280000 0.4906050000 0.4957010000 1 1 1 mag 0.0 
0.2223490000 0.4897520000 0.4277990000 1 1 1 mag 0.0 
0.3542300000 0.4901780000 0.4942610000 1 1 1 mag 0.0 
0.4205190000 0.4996760000 0.4312260000 1 1 1 mag 0.0 
0.6350500000 0.5162190000 0.4312560000 1 1 1 mag 0.0 
0.7647530000 0.5094300000 0.4959520000 1 1 1 mag 0.0 
0.8289130000 0.5019900000 0.4285150000 1 1 1 mag 0.0 
0.9610090000 0.4975160000 0.4960300000 1 1 1 mag 0.0 
0.0281540000 0.4981320000 0.6299970000 1 1 1 mag 0.0 
0.1606110000 0.4954650000 0.6972940000 1 1 1 mag 0.0 
0.2252940000 0.4914120000 0.6297470000 1 1 1 mag 0.0 
0.3580430000 0.4911160000 0.6972600000 1 1 1 mag 0.0 
0.4234190000 0.4902200000 0.6303520000 1 1 1 mag 0.0 
0.5538310000 0.4974910000 0.6923050000 1 1 1 mag 0.0 
0.7671130000 0.5214600000 0.6953590000 1 1 1 mag 0.0 
0.8322390000 0.5112860000 0.6310530000 1 1 1 mag 0.0 
0.9637290000 0.5036040000 0.6977050000 1 1 1 mag 0.0 
0.0286860000 0.5044580000 0.8307610000 1 1 1 mag 0.0 
0.1618000000 0.5014440000 0.8982230000 1 1 1 mag 0.0 
0.2276030000 0.4981400000 0.8310380000 1 1 1 mag 0.0 
0.3606430000 0.4982710000 0.8981760000 1 1 1 mag 0.0 
0.4263160000 0.4956940000 0.8303610000 1 1 1 mag 0.0 
0.5592390000 0.4991570000 0.8946930000 1 1 1 mag 0.0 
0.6242670000 0.5014970000 0.8247570000 1 1 1 mag 0.0 
0.7583430000 0.5075790000 0.8927480000 1 1 1 mag 0.0 
0.8260060000 0.5129070000 0.8262700000 1 1 1 mag 0.0 
0.9603130000 0.5072560000 0.8953350000 1 1 1 mag 0.0 
0.6285790000 0.6573500000 0.5931620000 1 1 1 mag 0.0 
0.7647810000 0.6764390000 0.6750370000 1 1 1 mag 0.0 
0.7717960000 0.7514120000 0.7060360000 1 1 1 mag 0.0 
0.6922570000 0.7681670000 0.7661170000 1 1 1 mag 0.0 
0.5560120000 0.7456800000 0.6850520000 1 1 1 mag 0.0 
0.5493180000 0.6705880000 0.6540250000 1 1 1 mag 0.0 

Pt
0.0000000000
1
0.5860810000 0.5434390000 0.5602180000 1 1 1 mag 0.0 

H
0.0000000000
12
0.5028690000 0.7549700000 0.7333720000 1 1 1 mag 0.0 
0.5906720000 0.6888280000 0.5081130000 1 1 1 mag 0.0 
0.8181720000 0.6654300000 0.6276940000 1 1 1 mag 0.0 
0.8073890000 0.6472740000 0.7621650000 1 1 1 mag 0.0 
0.8699470000 0.7657130000 0.7688570000 1 1 1 mag 0.0 
0.7388830000 0.7808560000 0.6195640000 1 1 1 mag 0.0 
0.6959500000 0.8221240000 0.7844450000 1 1 1 mag 0.0 
0.7327890000 0.7431590000 0.8579360000 1 1 1 mag 0.0 
0.5098690000 0.7745840000 0.5972510000 1 1 1 mag 0.0 
0.4511960000 0.6555400000 0.5925490000 1 1 1 mag 0.0 
0.5856380000 0.6416610000 0.7411970000 1 1 1 mag 0.0 
0.5760090000 0.6084790000 0.4779310000 1 1 1 mag 0.0 

