ATOMIC_SPECIES
H 1.008 H_ONCV_PBE-1.0.upf upf201
Au 196.967 Au_ONCV_PBE-1.0.upf upf201

NUMERICAL_ORBITAL
H_gga_6au_100Ry_2s1p.orb
Au_gga_7au_100Ry_4s2p2d1f.orb

LATTICE_CONSTANT
1.889726

LATTICE_VECTORS
    9.9897762400    -5.7676000000     0.0000000000 #latvec1
    0.0000000000    11.5352000000     0.0000000000 #latvec2
    0.0000000000     0.0000000000    19.0638000000 #latvec3

ATOMIC_POSITIONS
Direct

H #label
0 #magnetism
2 #number of atoms
    0.4431999143     0.6236497759     0.5285263552 m  1  1  1
    0.3788261515     0.5601829466     0.5368267501 m  1  1  1

Au #label
0 #magnetism
64 #number of atoms
    0.0000000000     0.0000000000     0.0000000000 m  0  0  0
    0.2500000000     0.0000000000     0.0000000000 m  0  0  0
    0.5000000000     0.0000000000     0.0000000000 m  0  0  0
    0.7500000000     0.0000000000     0.0000000000 m  0  0  0
    0.0000000000     0.2500000000     0.0000000000 m  0  0  0
    0.2500000000     0.2500000000     0.0000000000 m  0  0  0
    0.5000000000     0.2500000000     0.0000000000 m  0  0  0
    0.7500000000     0.2500000000     0.0000000000 m  0  0  0
    0.0000000000     0.5000000000     0.0000000000 m  0  0  0
    0.2500000000     0.5000000000     0.0000000000 m  0  0  0
    0.5000000000     0.5000000000     0.0000000000 m  0  0  0
    0.7500000000     0.5000000000     0.0000000000 m  0  0  0
    0.0000000000     0.7500000000     0.0000000000 m  0  0  0
    0.2500000000     0.7500000000     0.0000000000 m  0  0  0
    0.5000000000     0.7500000000     0.0000000000 m  0  0  0
    0.7500000000     0.7500000000     0.0000000000 m  0  0  0
    0.0833330000     0.1666670000     0.1235120000 m  0  0  0
    0.3333330000     0.1666670000     0.1235120000 m  0  0  0
    0.5833330000     0.1666670000     0.1235120000 m  0  0  0
    0.8333330000     0.1666670000     0.1235120000 m  0  0  0
    0.0833330000     0.4166670000     0.1235120000 m  0  0  0
    0.3333330000     0.4166670000     0.1235120000 m  0  0  0
    0.5833330000     0.4166670000     0.1235120000 m  0  0  0
    0.8333330000     0.4166670000     0.1235120000 m  0  0  0
    0.0833330000     0.6666670000     0.1235120000 m  0  0  0
    0.3333330000     0.6666670000     0.1235120000 m  0  0  0
    0.5833330000     0.6666670000     0.1235120000 m  0  0  0
    0.8333330000     0.6666670000     0.1235120000 m  0  0  0
    0.0833330000     0.9166670000     0.1235120000 m  0  0  0
    0.3333330000     0.9166670000     0.1235120000 m  0  0  0
    0.5833330000     0.9166670000     0.1235120000 m  0  0  0
    0.8333330000     0.9166670000     0.1235120000 m  0  0  0
    0.1666683003     0.0833291630     0.2470704457 m  1  1  1
    0.4170763834     0.0834867705     0.2473622877 m  1  1  1
    0.6666970215     0.0834724611     0.2475470718 m  1  1  1
    0.9163810634     0.0835895861     0.2474644797 m  1  1  1
    0.1661715634     0.3328068702     0.2470376266 m  1  1  1
    0.4163736711     0.3326761736     0.2469200798 m  1  1  1
    0.6666923778     0.3332945853     0.2474644242 m  1  1  1
    0.9165344495     0.3333033500     0.2475382940 m  1  1  1
    0.1661623305     0.5835730134     0.2471210410 m  1  1  1
    0.4165195932     0.5835148511     0.2465845635 m  1  1  1
    0.6673729062     0.5836604891     0.2469259006 m  1  1  1
    0.9165133056     0.5829379470     0.2473794449 m  1  1  1
    0.1667125034     0.8333622789     0.2470409611 m  1  1  1
    0.4164590869     0.8338500748     0.2471298518 m  1  1  1
    0.6672176605     0.8338566693     0.2470544478 m  1  1  1
    0.9166541786     0.8333619635     0.2471755559 m  1  1  1
    0.0006491299     0.9999927124     0.3738308409 m  1  1  1
    0.2498106972     0.9992365471     0.3735064599 m  1  1  1
    0.5001069558     0.0002395849     0.3750662080 m  1  1  1
    0.7502649696     0.0002262105     0.3749983986 m  1  1  1
    0.9997630936     0.2498476488     0.3749894815 m  1  1  1
    0.2501082000     0.2503839809     0.3743730449 m  1  1  1
    0.4999367178     0.2499647758     0.3747343304 m  1  1  1
    0.7499764998     0.2500507510     0.3750594095 m  1  1  1
    0.9997745741     0.4999149380     0.3750512147 m  1  1  1
    0.2493353309     0.4998009849     0.3729677177 m  1  1  1
    0.5001725714     0.4998664410     0.3725587421 m  1  1  1
    0.7501597867     0.5002000162     0.3747207458 m  1  1  1
    0.0004850149     0.7498697661     0.3739945176 m  1  1  1
    0.2503188830     0.7498037616     0.3747129019 m  1  1  1
    0.5002400429     0.7506968598     0.3730278196 m  1  1  1
    0.7499401361     0.7501302945     0.3743793847 m  1  1  1
