ATOMIC_SPECIES
H   1.008         H_ONCV_PBE-1.0.upf
Au  196.966569    Au_ONCV_PBE-1.0.upf

NUMERICAL_ORBITAL
H_gga_6au_100Ry_2s1p.orb
Au_gga_7au_100Ry_4s2p2d1f.orb

LATTICE_CONSTANT
1.8897261258369282 

LATTICE_VECTORS
11.535200000      0.0000000000      0.0000000000      
0.0000000000      19.063800000      0.0000000000      
-5.767600000      0.0000000000      9.9897700000      

ATOMIC_POSITIONS
Direct

H
0.0000000000
2
0.5177530000 0.5349820000 0.6601880000 1 1 1 v 0.0 0.0 0.0 mag 0.0 
0.4216110000 0.5350070000 0.5635120000 1 1 1 v 0.0 0.0 0.0 mag 0.0 

Au
0.0000000000
64
0.0400000000 0.1000000000 0.0400000000 0 0 0 v 0.0 0.0 0.0 mag 0.0 
0.2900000000 0.1000000000 0.0400000000 0 0 0 v 0.0 0.0 0.0 mag 0.0 
0.5400000000 0.1000000000 0.0400000000 0 0 0 v 0.0 0.0 0.0 mag 0.0 
0.7900000000 0.1000000000 0.0400000000 0 0 0 v 0.0 0.0 0.0 mag 0.0 
0.0400000000 0.1000000000 0.2900000000 0 0 0 v 0.0 0.0 0.0 mag 0.0 
0.2900000000 0.1000000000 0.2900000000 0 0 0 v 0.0 0.0 0.0 mag 0.0 
0.5400000000 0.1000000000 0.2900000000 0 0 0 v 0.0 0.0 0.0 mag 0.0 
0.7900000000 0.1000000000 0.2900000000 0 0 0 v 0.0 0.0 0.0 mag 0.0 
0.0400000000 0.1000000000 0.5400000000 0 0 0 v 0.0 0.0 0.0 mag 0.0 
0.2900000000 0.1000000000 0.5400000000 0 0 0 v 0.0 0.0 0.0 mag 0.0 
0.5400000000 0.1000000000 0.5400000000 0 0 0 v 0.0 0.0 0.0 mag 0.0 
0.7900000000 0.1000000000 0.5400000000 0 0 0 v 0.0 0.0 0.0 mag 0.0 
0.0400000000 0.1000000000 0.7900000000 0 0 0 v 0.0 0.0 0.0 mag 0.0 
0.2900000000 0.1000000000 0.7900000000 0 0 0 v 0.0 0.0 0.0 mag 0.0 
0.5400000000 0.1000000000 0.7900000000 0 0 0 v 0.0 0.0 0.0 mag 0.0 
0.7900000000 0.1000000000 0.7900000000 0 0 0 v 0.0 0.0 0.0 mag 0.0 
0.1233330000 0.2235120000 0.2066670000 0 0 0 v 0.0 0.0 0.0 mag 0.0 
0.3733330000 0.2235120000 0.2066670000 0 0 0 v 0.0 0.0 0.0 mag 0.0 
0.6233330000 0.2235120000 0.2066670000 0 0 0 v 0.0 0.0 0.0 mag 0.0 
0.8733330000 0.2235120000 0.2066670000 0 0 0 v 0.0 0.0 0.0 mag 0.0 
0.1233330000 0.2235120000 0.4566670000 0 0 0 v 0.0 0.0 0.0 mag 0.0 
0.3733330000 0.2235120000 0.4566670000 0 0 0 v 0.0 0.0 0.0 mag 0.0 
0.6233330000 0.2235120000 0.4566670000 0 0 0 v 0.0 0.0 0.0 mag 0.0 
0.8733330000 0.2235120000 0.4566670000 0 0 0 v 0.0 0.0 0.0 mag 0.0 
0.1233330000 0.2235120000 0.7066670000 0 0 0 v 0.0 0.0 0.0 mag 0.0 
0.3733330000 0.2235120000 0.7066670000 0 0 0 v 0.0 0.0 0.0 mag 0.0 
0.6233330000 0.2235120000 0.7066670000 0 0 0 v 0.0 0.0 0.0 mag 0.0 
0.8733330000 0.2235120000 0.7066670000 0 0 0 v 0.0 0.0 0.0 mag 0.0 
0.1233330000 0.2235120000 0.9566670000 0 0 0 v 0.0 0.0 0.0 mag 0.0 
0.3733330000 0.2235120000 0.9566670000 0 0 0 v 0.0 0.0 0.0 mag 0.0 
0.6233330000 0.2235120000 0.9566670000 0 0 0 v 0.0 0.0 0.0 mag 0.0 
0.8733330000 0.2235120000 0.9566670000 0 0 0 v 0.0 0.0 0.0 mag 0.0 
0.2072820000 0.3461810000 0.1228630000 1 1 1 v 0.0 0.0 0.0 mag 0.0 
0.4572150000 0.3465680000 0.1234330000 1 1 1 v 0.0 0.0 0.0 mag 0.0 
0.7065030000 0.3473390000 0.1237250000 1 1 1 v 0.0 0.0 0.0 mag 0.0 
0.9564680000 0.3470760000 0.1237350000 1 1 1 v 0.0 0.0 0.0 mag 0.0 
0.2065410000 0.3473270000 0.3721610000 1 1 1 v 0.0 0.0 0.0 mag 0.0 
0.4564770000 0.3488720000 0.3758580000 1 1 1 v 0.0 0.0 0.0 mag 0.0 
0.7061090000 0.3467720000 0.3740090000 1 1 1 v 0.0 0.0 0.0 mag 0.0 
0.9564420000 0.3473260000 0.3736560000 1 1 1 v 0.0 0.0 0.0 mag 0.0 
0.2086190000 0.3480170000 0.6229620000 1 1 1 v 0.0 0.0 0.0 mag 0.0 
0.4567620000 0.3488610000 0.6234770000 1 1 1 v 0.0 0.0 0.0 mag 0.0 
0.7042740000 0.3489100000 0.6236390000 1 1 1 v 0.0 0.0 0.0 mag 0.0 
0.9567150000 0.3465760000 0.6229070000 1 1 1 v 0.0 0.0 0.0 mag 0.0 
0.2073090000 0.3462120000 0.8728480000 1 1 1 v 0.0 0.0 0.0 mag 0.0 
0.4572500000 0.3480330000 0.8715990000 1 1 1 v 0.0 0.0 0.0 mag 0.0 
0.7079930000 0.3473440000 0.8736290000 1 1 1 v 0.0 0.0 0.0 mag 0.0 
0.9573020000 0.3461670000 0.8728860000 1 1 1 v 0.0 0.0 0.0 mag 0.0 
0.0414720000 0.4741870000 0.0388370000 1 1 1 v 0.0 0.0 0.0 mag 0.0 
0.2902290000 0.4735800000 0.0384590000 1 1 1 v 0.0 0.0 0.0 mag 0.0 
0.5400950000 0.4742630000 0.0434570000 1 1 1 v 0.0 0.0 0.0 mag 0.0 
0.7942270000 0.4751510000 0.0443350000 1 1 1 v 0.0 0.0 0.0 mag 0.0 
0.0360870000 0.4751800000 0.2862130000 1 1 1 v 0.0 0.0 0.0 mag 0.0 
0.2864540000 0.4742940000 0.2844910000 1 1 1 v 0.0 0.0 0.0 mag 0.0 
0.5392790000 0.4742100000 0.2891920000 1 1 1 v 0.0 0.0 0.0 mag 0.0 
0.7892420000 0.4736870000 0.2911020000 1 1 1 v 0.0 0.0 0.0 mag 0.0 
0.0369420000 0.4742450000 0.5401650000 1 1 1 v 0.0 0.0 0.0 mag 0.0 
0.2775860000 0.4756970000 0.5310270000 1 1 1 v 0.0 0.0 0.0 mag 0.0 
0.5438020000 0.4804780000 0.5360700000 1 1 1 v 0.0 0.0 0.0 mag 0.0 
0.7910280000 0.4741940000 0.5409630000 1 1 1 v 0.0 0.0 0.0 mag 0.0 
0.0417340000 0.4735580000 0.7899240000 1 1 1 v 0.0 0.0 0.0 mag 0.0 
0.2911010000 0.4743020000 0.7892030000 1 1 1 v 0.0 0.0 0.0 mag 0.0 
0.5493680000 0.4757860000 0.8030200000 1 1 1 v 0.0 0.0 0.0 mag 0.0 
0.7957630000 0.4742340000 0.7938230000 1 1 1 v 0.0 0.0 0.0 mag 0.0 

