ATOMIC_SPECIES
Li  6.94          Li_ONCV_PBE-1.2.upf
Si  28.085        Si_ONCV_PBE-1.2.upf

NUMERICAL_ORBITAL
Li_gga_8au_100Ry_4s1p.orb
Si_gga_8au_100Ry_2s2p1d.orb

LATTICE_CONSTANT
1.8897261258369282 

LATTICE_VECTORS
10.862000000      0.0000000000      0.0000000000      
0.0000000000      10.862000000      0.0000000000      
0.0000000000      0.0000000000      10.862000000      

ATOMIC_POSITIONS
Direct

Li
0.0000000000
1
0.6276660000 0.6276660000 0.6276660000 1 1 1 v 0.0 0.0 0.0 mag 0.0 

Si
0.0000000000
64
0.1275990000 0.3772830000 0.1276100000 1 1 1 v 0.0 0.0 0.0 mag 0.0 
0.1276250000 0.3778850000 0.6275970000 1 1 1 v 0.0 0.0 0.0 mag 0.0 
0.1276120000 0.8779100000 0.1276210000 1 1 1 v 0.0 0.0 0.0 mag 0.0 
0.1276230000 0.8773230000 0.6275880000 1 1 1 v 0.0 0.0 0.0 mag 0.0 
0.6275970000 0.3778940000 0.1276240000 1 1 1 v 0.0 0.0 0.0 mag 0.0 
0.6276100000 0.3762300000 0.6276100000 1 1 1 v 0.0 0.0 0.0 mag 0.0 
0.6275890000 0.8773130000 0.1276220000 1 1 1 v 0.0 0.0 0.0 mag 0.0 
0.6276410000 0.8790540000 0.6276510000 1 1 1 v 0.0 0.0 0.0 mag 0.0 
0.0026840000 0.0026830000 0.2525240000 1 1 1 v 0.0 0.0 0.0 mag 0.0 
0.0035020000 0.0035050000 0.7519330000 1 1 1 v 0.0 0.0 0.0 mag 0.0 
0.0034980000 0.5032400000 0.2517470000 1 1 1 v 0.0 0.0 0.0 mag 0.0 
0.0026860000 0.5020400000 0.7531550000 1 1 1 v 0.0 0.0 0.0 mag 0.0 
0.5032440000 0.0034830000 0.2517550000 1 1 1 v 0.0 0.0 0.0 mag 0.0 
0.5020370000 0.0026940000 0.7531540000 1 1 1 v 0.0 0.0 0.0 mag 0.0 
0.5020650000 0.5020680000 0.2525640000 1 1 1 v 0.0 0.0 0.0 mag 0.0 
0.4981530000 0.4981710000 0.7570990000 1 1 1 v 0.0 0.0 0.0 mag 0.0 
0.1276110000 0.1276100000 0.3772810000 1 1 1 v 0.0 0.0 0.0 mag 0.0 
0.1276240000 0.1276230000 0.8779110000 1 1 1 v 0.0 0.0 0.0 mag 0.0 
0.1276260000 0.6275970000 0.3778800000 1 1 1 v 0.0 0.0 0.0 mag 0.0 
0.1276230000 0.6275880000 0.8773270000 1 1 1 v 0.0 0.0 0.0 mag 0.0 
0.6275970000 0.1276240000 0.3778720000 1 1 1 v 0.0 0.0 0.0 mag 0.0 
0.6275890000 0.1276220000 0.8773360000 1 1 1 v 0.0 0.0 0.0 mag 0.0 
0.6276100000 0.6276100000 0.3762090000 1 1 1 v 0.0 0.0 0.0 mag 0.0 
0.6276540000 0.6276540000 0.8790720000 1 1 1 v 0.0 0.0 0.0 mag 0.0 
0.0026790000 0.2525280000 0.0026780000 1 1 1 v 0.0 0.0 0.0 mag 0.0 
0.0034770000 0.2517480000 0.5032420000 1 1 1 v 0.0 0.0 0.0 mag 0.0 
0.0035070000 0.7519350000 0.0034990000 1 1 1 v 0.0 0.0 0.0 mag 0.0 
0.0026970000 0.7531550000 0.5020400000 1 1 1 v 0.0 0.0 0.0 mag 0.0 
0.5032450000 0.2517450000 0.0034730000 1 1 1 v 0.0 0.0 0.0 mag 0.0 
0.5020620000 0.2525600000 0.5020660000 1 1 1 v 0.0 0.0 0.0 mag 0.0 
0.5020390000 0.7531530000 0.0026820000 1 1 1 v 0.0 0.0 0.0 mag 0.0 
0.4981390000 0.7571040000 0.4981780000 1 1 1 v 0.0 0.0 0.0 mag 0.0 
0.3773870000 0.3773830000 0.3773930000 1 1 1 v 0.0 0.0 0.0 mag 0.0 
0.3740620000 0.3740650000 0.8811590000 1 1 1 v 0.0 0.0 0.0 mag 0.0 
0.3740490000 0.8811690000 0.3740730000 1 1 1 v 0.0 0.0 0.0 mag 0.0 
0.3773650000 0.8778340000 0.8778360000 1 1 1 v 0.0 0.0 0.0 mag 0.0 
0.8811730000 0.3740660000 0.3740770000 1 1 1 v 0.0 0.0 0.0 mag 0.0 
0.8778420000 0.3773600000 0.8778390000 1 1 1 v 0.0 0.0 0.0 mag 0.0 
0.8778430000 0.8778460000 0.3773670000 1 1 1 v 0.0 0.0 0.0 mag 0.0 
0.8812710000 0.8812660000 0.8812590000 1 1 1 v 0.0 0.0 0.0 mag 0.0 
0.2525220000 0.0026750000 0.0026780000 1 1 1 v 0.0 0.0 0.0 mag 0.0 
0.2517510000 0.0034870000 0.5032400000 1 1 1 v 0.0 0.0 0.0 mag 0.0 
0.2517400000 0.5032410000 0.0034810000 1 1 1 v 0.0 0.0 0.0 mag 0.0 
0.2525610000 0.5020560000 0.5020610000 1 1 1 v 0.0 0.0 0.0 mag 0.0 
0.7519300000 0.0035020000 0.0034920000 1 1 1 v 0.0 0.0 0.0 mag 0.0 
0.7531590000 0.0026860000 0.5020390000 1 1 1 v 0.0 0.0 0.0 mag 0.0 
0.7531570000 0.5020420000 0.0026830000 1 1 1 v 0.0 0.0 0.0 mag 0.0 
0.7571240000 0.4981710000 0.4981770000 1 1 1 v 0.0 0.0 0.0 mag 0.0 
0.3772800000 0.1276100000 0.1276100000 1 1 1 v 0.0 0.0 0.0 mag 0.0 
0.3778770000 0.1276240000 0.6275970000 1 1 1 v 0.0 0.0 0.0 mag 0.0 
0.3778930000 0.6275970000 0.1276240000 1 1 1 v 0.0 0.0 0.0 mag 0.0 
0.3761940000 0.6275990000 0.6276050000 1 1 1 v 0.0 0.0 0.0 mag 0.0 
0.8779140000 0.1276230000 0.1276230000 1 1 1 v 0.0 0.0 0.0 mag 0.0 
0.8773320000 0.1276220000 0.6275880000 1 1 1 v 0.0 0.0 0.0 mag 0.0 
0.8773150000 0.6275880000 0.1276220000 1 1 1 v 0.0 0.0 0.0 mag 0.0 
0.8790870000 0.6276540000 0.6276540000 1 1 1 v 0.0 0.0 0.0 mag 0.0 
0.2525520000 0.2525560000 0.2525550000 1 1 1 v 0.0 0.0 0.0 mag 0.0 
0.2517640000 0.2517610000 0.7519650000 1 1 1 v 0.0 0.0 0.0 mag 0.0 
0.2517420000 0.7519660000 0.2517590000 1 1 1 v 0.0 0.0 0.0 mag 0.0 
0.2525490000 0.7531350000 0.7531410000 1 1 1 v 0.0 0.0 0.0 mag 0.0 
0.7519640000 0.2517570000 0.2517680000 1 1 1 v 0.0 0.0 0.0 mag 0.0 
0.7531510000 0.2525480000 0.7531470000 1 1 1 v 0.0 0.0 0.0 mag 0.0 
0.7531490000 0.7531440000 0.2525510000 1 1 1 v 0.0 0.0 0.0 mag 0.0 
0.7571940000 0.7571710000 0.7571700000 1 1 1 v 0.0 0.0 0.0 mag 0.0 

