ATOMIC_SPECIES
H    1.008  H_ONCV_PBE-1.0.upf
Au  196.967  Au_ONCV_PBE-1.0.upf

NUMERICAL_ORBITAL
H_gga_6au_100Ry_2s1p.orb
Au_gga_7au_100Ry_4s2p2d1f.orb

LATTICE_CONSTANT
1.889726

LATTICE_VECTORS
11.53519704724  0.000000000000  0.000000000000
0.000000000000  19.06379511685  0.000000000000
-5.76759852165  0.000000000000  9.989773679445

ATOMIC_POSITIONS
Direct

H 
0.000
2
0.483046393400  0.628618782600  0.663494580100  1  1  1  mag  0.0
0.418989375900  0.636969513000  0.600334248000  1  1  1  mag  0.0

Au
0.000
64
0.040000000000  0.100000000000  0.040000000000  0  0  0  mag  0.0
0.290000000000  0.100000000000  0.040000000000  0  0  0  mag  0.0
0.540000000000  0.100000000000  0.040000000000  0  0  0  mag  0.0
0.790000000000  0.100000000000  0.040000000000  0  0  0  mag  0.0
0.040000000000  0.100000000000  0.290000000000  0  0  0  mag  0.0
0.290000000000  0.100000000000  0.290000000000  0  0  0  mag  0.0
0.540000000000  0.100000000000  0.290000000000  0  0  0  mag  0.0
0.790000000000  0.100000000000  0.290000000000  0  0  0  mag  0.0
0.040000000000  0.100000000000  0.540000000000  0  0  0  mag  0.0
0.290000000000  0.100000000000  0.540000000000  0  0  0  mag  0.0
0.540000000000  0.100000000000  0.540000000000  0  0  0  mag  0.0
0.790000000000  0.100000000000  0.540000000000  0  0  0  mag  0.0
0.040000000000  0.100000000000  0.790000000000  0  0  0  mag  0.0
0.290000000000  0.100000000000  0.790000000000  0  0  0  mag  0.0
0.540000000000  0.100000000000  0.790000000000  0  0  0  mag  0.0
0.790000000000  0.100000000000  0.790000000000  0  0  0  mag  0.0
0.123333000000  0.223512000000  0.206667000000  0  0  0  mag  0.0
0.373333000000  0.223512000000  0.206667000000  0  0  0  mag  0.0
0.623333000000  0.223512000000  0.206667000000  0  0  0  mag  0.0
0.873333000000  0.223512000000  0.206667000000  0  0  0  mag  0.0
0.123333000000  0.223512000000  0.456667000000  0  0  0  mag  0.0
0.373333000000  0.223512000000  0.456667000000  0  0  0  mag  0.0
0.623333000000  0.223512000000  0.456667000000  0  0  0  mag  0.0
0.873333000000  0.223512000000  0.456667000000  0  0  0  mag  0.0
0.123333000000  0.223512000000  0.706667000000  0  0  0  mag  0.0
0.373333000000  0.223512000000  0.706667000000  0  0  0  mag  0.0
0.623333000000  0.223512000000  0.706667000000  0  0  0  mag  0.0
0.873333000000  0.223512000000  0.706667000000  0  0  0  mag  0.0
0.123333000000  0.223512000000  0.956667000000  0  0  0  mag  0.0
0.373333000000  0.223512000000  0.956667000000  0  0  0  mag  0.0
0.623333000000  0.223512000000  0.956667000000  0  0  0  mag  0.0
0.873333000000  0.223512000000  0.956667000000  0  0  0  mag  0.0
0.206610754300  0.347072198800  0.123288824300  1  1  1  mag  0.0
0.457157751100  0.347349603400  0.123530687500  1  1  1  mag  0.0
0.706691380900  0.347553425500  0.123462023100  1  1  1  mag  0.0
0.956384759300  0.347444552200  0.123598234900  1  1  1  mag  0.0
0.206187253100  0.347064003800  0.372847945600  1  1  1  mag  0.0
0.456435363500  0.346963607700  0.372777165000  1  1  1  mag  0.0
0.706690084100  0.347476985400  0.373303149400  1  1  1  mag  0.0
0.956547307900  0.347544924800  0.373317738600  1  1  1  mag  0.0
0.206186968800  0.347143740700  0.623535415000  1  1  1  mag  0.0
0.456547543300  0.346635159100  0.623502978100  1  1  1  mag  0.0
0.707275369500  0.346968402700  0.623601408000  1  1  1  mag  0.0
0.956507161800  0.347374440400  0.622915162800  1  1  1  mag  0.0
0.206637952800  0.347045190600  0.873315804300  1  1  1  mag  0.0
0.456503850300  0.347147607500  0.873811518900  1  1  1  mag  0.0
0.707166209000  0.347079635500  0.873834418000  1  1  1  mag  0.0
0.956736833900  0.347177882100  0.873391840100  1  1  1  mag  0.0
0.040493692400  0.473967551400  0.040005931300  1  1  1  mag  0.0
0.289979408000  0.473716911700  0.039486726100  1  1  1  mag  0.0
0.540146119400  0.475056053100  0.040258753700  1  1  1  mag  0.0
0.790266276400  0.474997683800  0.040211239600  1  1  1  mag  0.0
0.039786662000  0.474983697500  0.289844973700  1  1  1  mag  0.0
0.290108209800  0.474373186800  0.290324692600  1  1  1  mag  0.0
0.539931166100  0.474737921100  0.289942348500  1  1  1  mag  0.0
0.789961290200  0.475058751200  0.290049253500  1  1  1  mag  0.0
0.039775419100  0.475045737000  0.539889162400  1  1  1  mag  0.0
0.289334478400  0.473049911500  0.539760606800  1  1  1  mag  0.0
0.540199082400  0.472715668500  0.539893623800  1  1  1  mag  0.0
0.790138903400  0.474738886400  0.540169021700  1  1  1  mag  0.0
0.040310541600  0.474112725600  0.789797891400  1  1  1  mag  0.0
0.290301482400  0.474695803100  0.789778686600  1  1  1  mag  0.0
0.540312055000  0.473111102700  0.790699881900  1  1  1  mag  0.0
0.789959186600  0.474394292600  0.790130196600  1  1  1  mag  0.0
