ATOMIC_SPECIES
C   12.011        C_ONCV_PBE-1.0.upf
Pt  195.084       Pt_ONCV_PBE-1.0.upf
H   1.008         H_ONCV_PBE-1.0.upf

NUMERICAL_ORBITAL
C_gga_7au_100Ry_2s2p1d.orb
Pt_gga_7au_100Ry_4s2p2d1f.orb
H_gga_6au_100Ry_2s1p.orb

LATTICE_CONSTANT
1.8897261258369282 

LATTICE_VECTORS
12.322700000      0.0000000000      0.0000000000      
0.0000000000      20.000000000      0.0000000000      
-6.161540000      0.0000000000      10.671500000      

ATOMIC_POSITIONS
Direct

C
0.0000000000
54
0.0290030000 0.5003430000 0.0300140000 1 1 1 v 0.0 0.0 0.0 mag 0.0 
0.1628710000 0.4978750000 0.0981370000 1 1 1 v 0.0 0.0 0.0 mag 0.0 
0.2305480000 0.4974010000 0.0327500000 1 1 1 v 0.0 0.0 0.0 mag 0.0 
0.3643500000 0.4988000000 0.1008340000 1 1 1 v 0.0 0.0 0.0 mag 0.0 
0.4300420000 0.4963510000 0.0326990000 1 1 1 v 0.0 0.0 0.0 mag 0.0 
0.5631670000 0.4970790000 0.0981690000 1 1 1 v 0.0 0.0 0.0 mag 0.0 
0.6288930000 0.4965000000 0.0300080000 1 1 1 v 0.0 0.0 0.0 mag 0.0 
0.7620270000 0.4971720000 0.0953870000 1 1 1 v 0.0 0.0 0.0 mag 0.0 
0.8276620000 0.5010540000 0.0272510000 1 1 1 v 0.0 0.0 0.0 mag 0.0 
0.9615690000 0.4990090000 0.0955820000 1 1 1 v 0.0 0.0 0.0 mag 0.0 
0.0277940000 0.4936200000 0.2286720000 1 1 1 v 0.0 0.0 0.0 mag 0.0 
0.1611540000 0.4923460000 0.2964050000 1 1 1 v 0.0 0.0 0.0 mag 0.0 
0.2294360000 0.4963210000 0.2317540000 1 1 1 v 0.0 0.0 0.0 mag 0.0 
0.3640700000 0.5002220000 0.3013520000 1 1 1 v 0.0 0.0 0.0 mag 0.0 
0.4309070000 0.5032960000 0.2339090000 1 1 1 v 0.0 0.0 0.0 mag 0.0 
0.5651910000 0.5067250000 0.3007010000 1 1 1 v 0.0 0.0 0.0 mag 0.0 
0.6305040000 0.5000570000 0.2317880000 1 1 1 v 0.0 0.0 0.0 mag 0.0 
0.7633250000 0.4965260000 0.2964620000 1 1 1 v 0.0 0.0 0.0 mag 0.0 
0.8289180000 0.4944350000 0.2286980000 1 1 1 v 0.0 0.0 0.0 mag 0.0 
0.9619070000 0.4916580000 0.2958910000 1 1 1 v 0.0 0.0 0.0 mag 0.0 
0.0285550000 0.4887020000 0.4297150000 1 1 1 v 0.0 0.0 0.0 mag 0.0 
0.1609840000 0.4867220000 0.4972580000 1 1 1 v 0.0 0.0 0.0 mag 0.0 
0.2260300000 0.4884840000 0.4296600000 1 1 1 v 0.0 0.0 0.0 mag 0.0 
0.3580590000 0.4908900000 0.4965450000 1 1 1 v 0.0 0.0 0.0 mag 0.0 
0.4248850000 0.5004640000 0.4337070000 1 1 1 v 0.0 0.0 0.0 mag 0.0 
0.6376210000 0.5153040000 0.4316510000 1 1 1 v 0.0 0.0 0.0 mag 0.0 
0.7671270000 0.5064170000 0.4965930000 1 1 1 v 0.0 0.0 0.0 mag 0.0 
0.8313530000 0.4963170000 0.4296610000 1 1 1 v 0.0 0.0 0.0 mag 0.0 
0.9634820000 0.4910400000 0.4972230000 1 1 1 v 0.0 0.0 0.0 mag 0.0 
0.0303360000 0.4916980000 0.6311950000 1 1 1 v 0.0 0.0 0.0 mag 0.0 
0.1628770000 0.4888850000 0.6986550000 1 1 1 v 0.0 0.0 0.0 mag 0.0 
0.2279140000 0.4864750000 0.6312620000 1 1 1 v 0.0 0.0 0.0 mag 0.0 
0.3605950000 0.4879260000 0.6988690000 1 1 1 v 0.0 0.0 0.0 mag 0.0 
0.4260950000 0.4909390000 0.6323440000 1 1 1 v 0.0 0.0 0.0 mag 0.0 
0.5556510000 0.5007460000 0.6944260000 1 1 1 v 0.0 0.0 0.0 mag 0.0 
0.7699890000 0.5210570000 0.6960790000 1 1 1 v 0.0 0.0 0.0 mag 0.0 
0.8346220000 0.5086570000 0.6317470000 1 1 1 v 0.0 0.0 0.0 mag 0.0 
0.9658060000 0.4988040000 0.6986490000 1 1 1 v 0.0 0.0 0.0 mag 0.0 
0.0309220000 0.4999220000 0.8318080000 1 1 1 v 0.0 0.0 0.0 mag 0.0 
0.1640660000 0.4957090000 0.8994370000 1 1 1 v 0.0 0.0 0.0 mag 0.0 
0.2299480000 0.4915780000 0.8324280000 1 1 1 v 0.0 0.0 0.0 mag 0.0 
0.3631030000 0.4921820000 0.8996530000 1 1 1 v 0.0 0.0 0.0 mag 0.0 
0.4288980000 0.4912920000 0.8319770000 1 1 1 v 0.0 0.0 0.0 mag 0.0 
0.5617780000 0.4959090000 0.8963780000 1 1 1 v 0.0 0.0 0.0 mag 0.0 
0.6264550000 0.5015940000 0.8265470000 1 1 1 v 0.0 0.0 0.0 mag 0.0 
0.7610150000 0.5067420000 0.8941850000 1 1 1 v 0.0 0.0 0.0 mag 0.0 
0.8283950000 0.5119740000 0.8273670000 1 1 1 v 0.0 0.0 0.0 mag 0.0 
0.9627100000 0.5046300000 0.8964140000 1 1 1 v 0.0 0.0 0.0 mag 0.0 
0.6274210000 0.6616170000 0.5990830000 1 1 1 v 0.0 0.0 0.0 mag 0.0 
0.7607750000 0.6865770000 0.6762760000 1 1 1 v 0.0 0.0 0.0 mag 0.0 
0.7563630000 0.7625330000 0.6957960000 1 1 1 v 0.0 0.0 0.0 mag 0.0 
0.6779130000 0.7791100000 0.7571090000 1 1 1 v 0.0 0.0 0.0 mag 0.0 
0.5461180000 0.7492780000 0.6839360000 1 1 1 v 0.0 0.0 0.0 mag 0.0 
0.5507610000 0.6733400000 0.6636130000 1 1 1 v 0.0 0.0 0.0 mag 0.0 

Pt
0.0000000000
1
0.5901450000 0.5450590000 0.5618280000 1 1 1 v 0.0 0.0 0.0 mag 0.0 

H
0.0000000000
12
0.4937280000 0.7583820000 0.7331350000 1 1 1 v 0.0 0.0 0.0 mag 0.0 
0.5822790000 0.6912960000 0.5117480000 1 1 1 v 0.0 0.0 0.0 mag 0.0 
0.8147480000 0.6762190000 0.6293330000 1 1 1 v 0.0 0.0 0.0 mag 0.0 
0.8085480000 0.6610660000 0.7674690000 1 1 1 v 0.0 0.0 0.0 mag 0.0 
0.8519890000 0.7821940000 0.7524280000 1 1 1 v 0.0 0.0 0.0 mag 0.0 
0.7153460000 0.7877470000 0.6040720000 1 1 1 v 0.0 0.0 0.0 mag 0.0 
0.6719370000 0.8336280000 0.7648510000 1 1 1 v 0.0 0.0 0.0 mag 0.0 
0.7252400000 0.7594200000 0.8534910000 1 1 1 v 0.0 0.0 0.0 mag 0.0 
0.4935170000 0.7741080000 0.5920900000 1 1 1 v 0.0 0.0 0.0 mag 0.0 
0.4547510000 0.6539550000 0.6081000000 1 1 1 v 0.0 0.0 0.0 mag 0.0 
0.5946500000 0.6476820000 0.7546990000 1 1 1 v 0.0 0.0 0.0 mag 0.0 
0.5970660000 0.6116900000 0.4906660000 1 1 1 v 0.0 0.0 0.0 mag 0.0 

