ATOMIC_SPECIES
H   1.008         H_ONCV_PBE-1.0.upf
Au  196.966569    Au_ONCV_PBE-1.0.upf

NUMERICAL_ORBITAL
H_gga_6au_100Ry_2s1p.orb
Au_gga_7au_100Ry_4s2p2d1f.orb

LATTICE_CONSTANT
1.8897261258369282 

LATTICE_VECTORS
11.535200000      0.0000000000      0.0000000000      
0.0000000000      19.063800000      0.0000000000      
-5.767600000      0.0000000000      9.9897700000      

ATOMIC_POSITIONS
Direct

H
0.0000000000
2
0.6090410000 0.5240820000 0.7103020000 1 1 1 v 0.0 0.0 0.0 mag 0.0 
0.3712070000 0.5246800000 0.4738850000 1 1 1 v 0.0 0.0 0.0 mag 0.0 

Au
0.0000000000
64
0.0400000000 0.1000000000 0.0400000000 0 0 0 v 0.0 0.0 0.0 mag 0.0 
0.2900000000 0.1000000000 0.0400000000 0 0 0 v 0.0 0.0 0.0 mag 0.0 
0.5400000000 0.1000000000 0.0400000000 0 0 0 v 0.0 0.0 0.0 mag 0.0 
0.7900000000 0.1000000000 0.0400000000 0 0 0 v 0.0 0.0 0.0 mag 0.0 
0.0400000000 0.1000000000 0.2900000000 0 0 0 v 0.0 0.0 0.0 mag 0.0 
0.2900000000 0.1000000000 0.2900000000 0 0 0 v 0.0 0.0 0.0 mag 0.0 
0.5400000000 0.1000000000 0.2900000000 0 0 0 v 0.0 0.0 0.0 mag 0.0 
0.7900000000 0.1000000000 0.2900000000 0 0 0 v 0.0 0.0 0.0 mag 0.0 
0.0400000000 0.1000000000 0.5400000000 0 0 0 v 0.0 0.0 0.0 mag 0.0 
0.2900000000 0.1000000000 0.5400000000 0 0 0 v 0.0 0.0 0.0 mag 0.0 
0.5400000000 0.1000000000 0.5400000000 0 0 0 v 0.0 0.0 0.0 mag 0.0 
0.7900000000 0.1000000000 0.5400000000 0 0 0 v 0.0 0.0 0.0 mag 0.0 
0.0400000000 0.1000000000 0.7900000000 0 0 0 v 0.0 0.0 0.0 mag 0.0 
0.2900000000 0.1000000000 0.7900000000 0 0 0 v 0.0 0.0 0.0 mag 0.0 
0.5400000000 0.1000000000 0.7900000000 0 0 0 v 0.0 0.0 0.0 mag 0.0 
0.7900000000 0.1000000000 0.7900000000 0 0 0 v 0.0 0.0 0.0 mag 0.0 
0.1233330000 0.2235120000 0.2066670000 0 0 0 v 0.0 0.0 0.0 mag 0.0 
0.3733330000 0.2235120000 0.2066670000 0 0 0 v 0.0 0.0 0.0 mag 0.0 
0.6233330000 0.2235120000 0.2066670000 0 0 0 v 0.0 0.0 0.0 mag 0.0 
0.8733330000 0.2235120000 0.2066670000 0 0 0 v 0.0 0.0 0.0 mag 0.0 
0.1233330000 0.2235120000 0.4566670000 0 0 0 v 0.0 0.0 0.0 mag 0.0 
0.3733330000 0.2235120000 0.4566670000 0 0 0 v 0.0 0.0 0.0 mag 0.0 
0.6233330000 0.2235120000 0.4566670000 0 0 0 v 0.0 0.0 0.0 mag 0.0 
0.8733330000 0.2235120000 0.4566670000 0 0 0 v 0.0 0.0 0.0 mag 0.0 
0.1233330000 0.2235120000 0.7066670000 0 0 0 v 0.0 0.0 0.0 mag 0.0 
0.3733330000 0.2235120000 0.7066670000 0 0 0 v 0.0 0.0 0.0 mag 0.0 
0.6233330000 0.2235120000 0.7066670000 0 0 0 v 0.0 0.0 0.0 mag 0.0 
0.8733330000 0.2235120000 0.7066670000 0 0 0 v 0.0 0.0 0.0 mag 0.0 
0.1233330000 0.2235120000 0.9566670000 0 0 0 v 0.0 0.0 0.0 mag 0.0 
0.3733330000 0.2235120000 0.9566670000 0 0 0 v 0.0 0.0 0.0 mag 0.0 
0.6233330000 0.2235120000 0.9566670000 0 0 0 v 0.0 0.0 0.0 mag 0.0 
0.8733330000 0.2235120000 0.9566670000 0 0 0 v 0.0 0.0 0.0 mag 0.0 
0.2088860000 0.3471050000 0.1264560000 1 1 1 v 0.0 0.0 0.0 mag 0.0 
0.4557580000 0.3461670000 0.1241150000 1 1 1 v 0.0 0.0 0.0 mag 0.0 
0.7061080000 0.3469160000 0.1240040000 1 1 1 v 0.0 0.0 0.0 mag 0.0 
0.9569040000 0.3468190000 0.1231730000 1 1 1 v 0.0 0.0 0.0 mag 0.0 
0.2063970000 0.3477220000 0.3732320000 1 1 1 v 0.0 0.0 0.0 mag 0.0 
0.4571290000 0.3495080000 0.3784330000 1 1 1 v 0.0 0.0 0.0 mag 0.0 
0.7060140000 0.3468150000 0.3741720000 1 1 1 v 0.0 0.0 0.0 mag 0.0 
0.9561860000 0.3469100000 0.3741070000 1 1 1 v 0.0 0.0 0.0 mag 0.0 
0.2075750000 0.3479110000 0.6226880000 1 1 1 v 0.0 0.0 0.0 mag 0.0 
0.4561350000 0.3489650000 0.6239740000 1 1 1 v 0.0 0.0 0.0 mag 0.0 
0.7016780000 0.3495610000 0.6230420000 1 1 1 v 0.0 0.0 0.0 mag 0.0 
0.9560230000 0.3461720000 0.6244500000 1 1 1 v 0.0 0.0 0.0 mag 0.0 
0.2060370000 0.3456350000 0.8741220000 1 1 1 v 0.0 0.0 0.0 mag 0.0 
0.4574390000 0.3478780000 0.8725800000 1 1 1 v 0.0 0.0 0.0 mag 0.0 
0.7068690000 0.3477350000 0.8736830000 1 1 1 v 0.0 0.0 0.0 mag 0.0 
0.9536070000 0.3471660000 0.8712200000 1 1 1 v 0.0 0.0 0.0 mag 0.0 
0.0400460000 0.4735220000 0.0402470000 1 1 1 v 0.0 0.0 0.0 mag 0.0 
0.2888370000 0.4730300000 0.0413320000 1 1 1 v 0.0 0.0 0.0 mag 0.0 
0.5384750000 0.4729020000 0.0441430000 1 1 1 v 0.0 0.0 0.0 mag 0.0 
0.7911280000 0.4729340000 0.0437590000 1 1 1 v 0.0 0.0 0.0 mag 0.0 
0.0365670000 0.4729410000 0.2891260000 1 1 1 v 0.0 0.0 0.0 mag 0.0 
0.2864620000 0.4776990000 0.2871250000 1 1 1 v 0.0 0.0 0.0 mag 0.0 
0.5388640000 0.4730950000 0.2918280000 1 1 1 v 0.0 0.0 0.0 mag 0.0 
0.7883120000 0.4735530000 0.2920000000 1 1 1 v 0.0 0.0 0.0 mag 0.0 
0.0361830000 0.4728660000 0.5417950000 1 1 1 v 0.0 0.0 0.0 mag 0.0 
0.2813590000 0.4769740000 0.5422470000 1 1 1 v 0.0 0.0 0.0 mag 0.0 
0.5408290000 0.4875210000 0.5391880000 1 1 1 v 0.0 0.0 0.0 mag 0.0 
0.7882930000 0.4730730000 0.5413220000 1 1 1 v 0.0 0.0 0.0 mag 0.0 
0.0388640000 0.4730280000 0.7913690000 1 1 1 v 0.0 0.0 0.0 mag 0.0 
0.2873210000 0.4730150000 0.7929790000 1 1 1 v 0.0 0.0 0.0 mag 0.0 
0.5380430000 0.4769050000 0.7990420000 1 1 1 v 0.0 0.0 0.0 mag 0.0 
0.7932400000 0.4779330000 0.7939150000 1 1 1 v 0.0 0.0 0.0 mag 0.0 

