ATOMIC_SPECIES
C   12.011  C_ONCV_PBE-1.0.upf
O   15.999  O_ONCV_PBE-1.0.upf
Pt  195.085  Pt_ONCV_PBE-1.0.upf

NUMERICAL_ORBITAL
C_gga_7au_100Ry_2s2p1d.orb
O_gga_7au_100Ry_2s2p1d.orb
Pt_gga_7au_100Ry_4s2p2d1f.orb

LATTICE_CONSTANT
1.889726

LATTICE_VECTORS
11.18739901983  0.000000000000  0.000000000000
0.000000000000  18.85089822731  0.000000000000
-5.59369953152  0.000000000000  9.688571188571

ATOMIC_POSITIONS
Direct

C 
0.000
1
0.381606000000  0.402339000000  0.699589000000  1  1  1  mag  0.0

O 
0.000
1
0.384070000000  0.424616000000  0.429257000000  1  1  1  mag  0.0

Pt
0.000
64
0.044552000000  0.000000000000  0.022276000000  0  0  0  mag  0.0
0.294552000000  0.000000000000  0.022276000000  0  0  0  mag  0.0
0.544552000000  0.000000000000  0.022276000000  0  0  0  mag  0.0
0.794552000000  0.000000000000  0.022276000000  0  0  0  mag  0.0
0.044552000000  0.000000000000  0.272276000000  0  0  0  mag  0.0
0.294552000000  0.000000000000  0.272276000000  0  0  0  mag  0.0
0.544552000000  0.000000000000  0.272276000000  0  0  0  mag  0.0
0.794552000000  0.000000000000  0.272276000000  0  0  0  mag  0.0
0.294552000000  0.000000000000  0.522276000000  0  0  0  mag  0.0
0.544552000000  0.000000000000  0.522276000000  0  0  0  mag  0.0
0.794552000000  0.000000000000  0.522276000000  0  0  0  mag  0.0
0.044552000000  0.000000000000  0.522276000000  0  0  0  mag  0.0
0.044552000000  0.000000000000  0.772276000000  0  0  0  mag  0.0
0.294552000000  0.000000000000  0.772276000000  0  0  0  mag  0.0
0.544552000000  0.000000000000  0.772276000000  0  0  0  mag  0.0
0.794552000000  0.000000000000  0.772276000000  0  0  0  mag  0.0
0.878050000000  0.120048000000  0.189358000000  1  1  1  mag  0.0
0.878268000000  0.120292000000  0.439323000000  1  1  1  mag  0.0
0.878167000000  0.120210000000  0.939365000000  1  1  1  mag  0.0
0.627450000000  0.120358000000  0.188656000000  1  1  1  mag  0.0
0.377926000000  0.120264000000  0.189427000000  1  1  1  mag  0.0
0.128641000000  0.120578000000  0.189585000000  1  1  1  mag  0.0
0.877859000000  0.120709000000  0.688764000000  1  1  1  mag  0.0
0.127883000000  0.120599000000  0.939353000000  1  1  1  mag  0.0
0.627376000000  0.120706000000  0.439405000000  1  1  1  mag  0.0
0.377584000000  0.120717000000  0.938142000000  1  1  1  mag  0.0
0.129529000000  0.120798000000  0.440115000000  1  1  1  mag  0.0
0.627005000000  0.120855000000  0.937556000000  1  1  1  mag  0.0
0.627410000000  0.121088000000  0.688828000000  1  1  1  mag  0.0
0.128884000000  0.121238000000  0.689245000000  1  1  1  mag  0.0
0.377884000000  0.121600000000  0.439735000000  1  1  1  mag  0.0
0.377802000000  0.122652000000  0.688445000000  1  1  1  mag  0.0
0.961573000000  0.237673000000  0.855923000000  1  1  1  mag  0.0
0.960763000000  0.237726000000  0.105350000000  1  1  1  mag  0.0
0.961329000000  0.237795000000  0.356071000000  1  1  1  mag  0.0
0.460741000000  0.238253000000  0.105221000000  1  1  1  mag  0.0
0.710929000000  0.238370000000  0.105046000000  1  1  1  mag  0.0
0.711472000000  0.238371000000  0.356095000000  1  1  1  mag  0.0
0.961209000000  0.238409000000  0.606155000000  1  1  1  mag  0.0
0.212439000000  0.239569000000  0.108630000000  1  1  1  mag  0.0
0.461034000000  0.239734000000  0.356546000000  1  1  1  mag  0.0
0.211357000000  0.239764000000  0.854883000000  1  1  1  mag  0.0
0.709842000000  0.240005000000  0.854744000000  1  1  1  mag  0.0
0.708910000000  0.240540000000  0.604675000000  1  1  1  mag  0.0
0.211891000000  0.241101000000  0.357835000000  1  1  1  mag  0.0
0.460218000000  0.241382000000  0.854513000000  1  1  1  mag  0.0
0.461195000000  0.242732000000  0.606032000000  1  1  1  mag  0.0
0.212703000000  0.243129000000  0.605179000000  1  1  1  mag  0.0
0.036925000000  0.358310000000  0.267266000000  1  1  1  mag  0.0
0.546609000000  0.358316000000  0.271038000000  1  1  1  mag  0.0
0.036279000000  0.358638000000  0.519347000000  1  1  1  mag  0.0
0.546760000000  0.358969000000  0.026290000000  1  1  1  mag  0.0
0.041701000000  0.359289000000  0.019997000000  1  1  1  mag  0.0
0.793277000000  0.359324000000  0.271420000000  1  1  1  mag  0.0
0.293543000000  0.359768000000  0.023582000000  1  1  1  mag  0.0
0.801180000000  0.359908000000  0.775763000000  1  1  1  mag  0.0
0.797249000000  0.359994000000  0.025118000000  1  1  1  mag  0.0
0.796681000000  0.360103000000  0.521917000000  1  1  1  mag  0.0
0.040623000000  0.360099000000  0.772178000000  1  1  1  mag  0.0
0.288260000000  0.360909000000  0.258736000000  1  1  1  mag  0.0
0.559001000000  0.362611000000  0.526556000000  1  1  1  mag  0.0
0.562680000000  0.364928000000  0.782325000000  1  1  1  mag  0.0
0.284440000000  0.365550000000  0.783767000000  1  1  1  mag  0.0
0.280080000000  0.368540000000  0.512291000000  1  1  1  mag  0.0
