C    Fe   H    O 
   1.00000000000000     
   9.9798002242999999   0.0000000000000000   0.0000000000000000
  -0.7640029178000000  12.6617713744000007   0.0000000000000000
   0.0000000000000000   0.0000000000000000  24.6403999328999994
C    Fe   H    O 
38  80  1  1  
Selective dynamics
Direct
  0.4744306155794885  0.7322429179415578  0.3004398976464221 T T T
  0.2498997119640592  0.3376569706952339  0.2933223031212407 T T T
  0.4110235056614616  0.9397559085948720  0.2922274176357593 T T T
  0.0072227696574733  0.5362968892626999  0.2592916968314351 T T T
  0.1815935780927246  0.1285846450852238  0.2505875602217990 T T T
  0.2681935522747776  0.6550334782657716  0.2293924377990154 T T T
  0.4419760244727040  0.2488407346270405  0.2155924261145573 T T T
  0.0341744858462914  0.8544646024041650  0.1737339479674429 T T T
  0.2082167556506062  0.4506228552890313  0.1629491248829376 T T T
  0.2946004095594751  0.9746870434240326  0.1472725835549045 T T T
  0.4685400127946266  0.5689799785491232  0.1363965421889333 F F F
  0.0618849992594050  0.1761599927881861  0.0950439572156867 F F F
  0.2337199896574802  0.7683600186992834  0.0814537331563443 F F F
  0.3233349919776458  0.2983900010735283  0.0596694983443413 F F F
  0.4914749860564243  0.8917099833146409  0.0522725917398859 F F F
  0.0908050015913417  0.4841400086716163  0.0186596699019503 F F F
  0.2536650002469187  0.0891999975045792  0.0165792908439997 F F F
  0.0294449906413732  0.6901699900906735  0.0075403899086837 F F F
  0.9745847109879908  0.7388944993440180  0.3031774453116354 T T T
  0.7498880521001171  0.3346311260659305  0.2932692414412827 T T T
  0.9235524923636416  0.9477714807266400  0.2900128037387132 T T T
  0.5105330075277841  0.5347364448718614  0.2563261712470858 T T T
  0.6801921027156428  0.1224063414754583  0.2517362169512150 T T T
  0.7682292190473972  0.6548343468149430  0.2274935350678984 T T T
  0.9413758802100132  0.2472977800301351  0.2149302623172911 T T T
  0.5331878169980642  0.8539169988118206  0.1735254769995121 T T T
  0.7089885739519606  0.4503312753952829  0.1628270659092821 T T T
  0.7938923886765749  0.9745850447699892  0.1479206326943674 T T T
  0.9685400128797994  0.5689799785491232  0.1363965421889333 F F F
  0.5618849992443700  0.1761599927881861  0.0950439572156867 F F F
  0.7337200045726107  0.7683600186992834  0.0814537331563443 F F F
  0.8233349919626107  0.2983900010735283  0.0596694983443413 F F F
  0.9914749860413964  0.8917099833146409  0.0522725917398859 F F F
  0.5908049940611306  0.4841400086716163  0.0186596699019503 F F F
  0.7536649703715668  0.0891999975045792  0.0165792908439997 F F F
  0.5294449925301876  0.6901699900906735  0.0075403899086837 F F F
  0.6820453963697095  0.8950592277358459  0.3364755271830688 T T T
  0.7232972340520327  0.6008418362746442  0.3422655884922090 T T T
  0.3684340175492484  0.6097358105977707  0.2904213118329257 T T T
  0.3124722922262786  0.8054152751816503  0.2862465594668082 T T T
  0.2518053680881063  0.0066587748431626  0.2853224161789695 T T T
  0.4222149889066338  0.4056733846560434  0.2814357997168778 T T T
  0.0674855565762470  0.8618294441914605  0.2777576467537003 T T T
  0.3355686780792332  0.2123139492688390  0.2805773233233962 T T T
  0.1181069952542267  0.6625875451114073  0.2802584563272260 T T T
  0.1757229331716364  0.4651929027899513  0.2736775664450749 T T T
  0.0905500062716795  0.2628644684021089  0.2715295060403003 T T T
  0.0043075883470898  0.0730511011623459  0.2685475182733441 T T T
  0.3953627744226091  0.9287996123408450  0.2103452683884283 T T T
  0.4473970885006798  0.7274628128797314  0.2066279540503199 T T T
  0.2785464881561359  0.3336016671316203  0.2047602704903198 T T T
  0.3609128418438137  0.5332585528962187  0.2001920524247978 T T T
  0.1444215645707903  0.9824656898963556  0.1980168028613067 T T T
  0.3326885434013171  0.1176047465550632  0.1963862008241523 T T T
  0.2006177792498023  0.7796691372967169  0.1934706718742721 T T T
  0.1156743894604186  0.5765470325923234  0.1915463522942266 T T T
  0.0322049428533199  0.3834200665438174  0.1904497603912639 T T T
  0.0899190088514225  0.1744262823164364  0.1828757048812307 T T T
  0.4136900008068167  0.2502999902057681  0.1271424144304163 F F F
  0.4704949855754847  0.0404199995298242  0.1188129335551480 F F F
  0.3857499957397792  0.8492599725612706  0.1185578629387223 F F F
  0.3033199906596167  0.6449099778811132  0.1173064410833931 F F F
  0.1709650010212442  0.3072200119538451  0.1140384078039318 F F F
  0.3591200113090878  0.4420500099469891  0.1119739711414383 F F F
  0.1420149952083918  0.8923400044044314  0.1095428690423148 F F F
  0.0567499995726877  0.6983600259026943  0.1071675718004172 F F F
  0.2246650009896243  0.0911900028723025  0.1049038618707101 F F F
  0.1082149967159012  0.4960300028555551  0.1003684699410172 F F F
  0.0009649999817967  0.3574799895022167  0.0397902913373969 F F F
  0.4128350019555498  0.1645900011441910  0.0385468490603458 F F F
  0.3247349858650637  0.9604699611452504  0.0357889495869159 F F F
  0.4378649890878918  0.5640299916044285  0.0316202081590262 F F F
  0.3832349777378141  0.7627800106647911  0.0303369108470477 F F F
  0.1678700000017486  0.2140299976099058  0.0297789499358032 F F F
  0.0811100005662482  0.0194600000832565  0.0270927902476359 F F F
  0.1895550041961158  0.6185399890282852  0.0245501007957358 F F F
  0.2521499991215705  0.4194400012416608  0.0245022792505054 F F F
  0.1318049877660243  0.8125699758567606  0.0205567199550103 F F F
  0.8675297937470450  0.6198861679447553  0.2902503099949218 T T T
  0.8148638262592184  0.8198565807778849  0.2975905258867265 T T T
  0.7546737052412564  0.0040812199943414  0.2896162973912808 T T T
  0.9229721388577976  0.4045701993015256  0.2819308583272828 T T T
  0.5624261911301259  0.8605094428209286  0.2818453924055855 T T T
  0.8352148164334008  0.2099152615482638  0.2803666084372109 T T T
  0.6222380713907638  0.6562629400045065  0.2826925216009537 T T T
  0.6752349935235997  0.4635246474875636  0.2766981895093462 T T T
  0.5910079257778712  0.2593190981526662  0.2716566585032598 T T T
  0.5013698266303650  0.0678632231610823  0.2714309165385629 T T T
  0.8953936053630329  0.9283886221865524  0.2102144593045736 T T T
  0.9447271612234198  0.7291958858670337  0.2057230307792078 T T T
  0.7785222248228397  0.3335122338633928  0.2052661839700719 T T T
  0.8627785555431782  0.5325484045808641  0.2010540387305752 T T T
  0.6443222544362345  0.9806232865083564  0.1997915515284600 T T T
  0.8309052954468388  0.1162286712494031  0.1962219183981349 T T T
  0.6995388843097613  0.7820889055561554  0.1973472333685004 T T T
  0.6173444315597599  0.5751300544031021  0.1915113382314829 T T T
  0.5331410830860669  0.3836402328824493  0.1909734189714374 T T T
  0.5891082164901308  0.1730525175876682  0.1835753946272877 T T T
  0.9136899709314648  0.2502999902057681  0.1271424144304163 F F F
  0.9704949855604568  0.0404199995298242  0.1188129335551480 F F F
  0.8857499957247441  0.8492599725612706  0.1185578629387223 F F F
  0.8033199906445816  0.6449099778811132  0.1173064410833931 F F F
  0.6709650159363747  0.3072200119538451  0.1140384078039318 F F F
  0.8591200112940527  0.4420500099469891  0.1119739711414383 F F F
  0.6420149803634061  0.8923400044044314  0.1095428690423148 F F F
  0.5567499995576597  0.6983600259026943  0.1071675718004172 F F F
  0.7246649861446386  0.0911900028723025  0.1049038618707101 F F F
  0.6082149744559402  0.4960300028555551  0.1003684699410172 F F F
  0.5009649991651486  0.3574799895022167  0.0397902913373969 F F F
  0.9128350019405148  0.1645900011441910  0.0385468490603458 F F F
  0.8247349858500357  0.9604699611452504  0.0357889495869159 F F F
  0.9378650188329800  0.5640299916044285  0.0316202081590262 F F F
  0.8832349777227790  0.7627800106647911  0.0303369108470477 F F F
  0.6678699850565621  0.2140299976099058  0.0297789499358032 F F F
  0.5811100006514209  0.0194600000832565  0.0270927902476359 F F F
  0.6895549893511301  0.6185399890282852  0.0245501007957358 F F F
  0.7521499991065355  0.4194400012416608  0.0245022792505054 F F F
  0.6318050026811548  0.8125699758567606  0.0205567199550103 F F F
  0.6699644459721006  0.8967341985590960  0.3808632832905326 T T T
  0.7107312990175961  0.5824044681870466  0.3896149149870919 T T T
