ATOMIC_SPECIES
C   12.011  C_ONCV_PBE-1.0.upf
Fe   55.845  Fe_ONCV_PBE-1.0.upf
H    1.008  H_ONCV_PBE-1.0.upf
O   15.999  O_ONCV_PBE-1.0.upf

NUMERICAL_ORBITAL
C_gga_7au_100Ry_2s2p1d.orb
Fe_gga_8au_100Ry_4s2p2d1f.orb
H_gga_6au_100Ry_2s1p.orb
O_gga_7au_100Ry_2s2p1d.orb

LATTICE_CONSTANT
1.889726

LATTICE_VECTORS
9.979800224300  0.000000000000  0.000000000000
0.000000000000  24.64039993290  0.000000000000
-0.76400291780  0.000000000000  12.66177137440

ATOMIC_POSITIONS
Direct

C 
-0.300
38
0.474430615579  0.300439897646  0.732242917942  1  1  1  
0.249899711964  0.293322303121  0.337656970695  1  1  1  
0.411023505661  0.292227417636  0.939755908595  1  1  1  
0.007222769657  0.259291696831  0.536296889263  1  1  1  
0.181593578093  0.250587560222  0.128584645085  1  1  1  
0.268193552275  0.229392437799  0.655033478266  1  1  1  
0.441976024473  0.215592426115  0.248840734627  1  1  1  
0.034174485846  0.173733947967  0.854464602404  1  1  1  
0.208216755651  0.162949124883  0.450622855289  1  1  1  
0.294600409559  0.147272583555  0.974687043424  1  1  1  
0.468540012795  0.136396542189  0.568979978549  0  0  0  
0.061884999259  0.095043957216  0.176159992788  0  0  0  
0.233719989657  0.081453733156  0.768360018699  0  0  0  
0.323334991978  0.059669498344  0.298390001074  0  0  0  
0.491474986056  0.052272591740  0.891709983315  0  0  0  
0.090805001591  0.018659669902  0.484140008672  0  0  0  
0.253665000247  0.016579290844  0.089199997505  0  0  0  
0.029444990641  0.007540389909  0.690169990091  0  0  0  
0.974584710988  0.303177445312  0.738894499344  1  1  1  
0.749888052100  0.293269241441  0.334631126066  1  1  1  
0.923552492364  0.290012803739  0.947771480727  1  1  1  
0.510533007528  0.256326171247  0.534736444872  1  1  1  
0.680192102716  0.251736216951  0.122406341475  1  1  1  
0.768229219047  0.227493535068  0.654834346815  1  1  1  
0.941375880210  0.214930262317  0.247297780030  1  1  1  
0.533187816998  0.173525477000  0.853916998812  1  1  1  
0.708988573952  0.162827065909  0.450331275395  1  1  1  
0.793892388677  0.147920632694  0.974585044770  1  1  1  
0.968540012880  0.136396542189  0.568979978549  0  0  0  
0.561884999244  0.095043957216  0.176159992788  0  0  0  
0.733720004573  0.081453733156  0.768360018699  0  0  0  
0.823334991963  0.059669498344  0.298390001074  0  0  0  
0.991474986041  0.052272591740  0.891709983315  0  0  0  
0.590804994061  0.018659669902  0.484140008672  0  0  0  
0.753664970372  0.016579290844  0.089199997505  0  0  0  
0.529444992530  0.007540389909  0.690169990091  0  0  0  
0.682045396370  0.336475527183  0.895059227736  1  1  1  
0.723297234052  0.342265588492  0.600841836275  1  1  1  

Fe
1.700
80
0.368434017549  0.290421311833  0.609735810598  1  1  1  
0.312472292226  0.286246559467  0.805415275182  1  1  1  
0.251805368088  0.285322416179  0.006658774843  1  1  1  
0.422214988907  0.281435799717  0.405673384656  1  1  1  
0.067485556576  0.277757646754  0.861829444191  1  1  1  
0.335568678079  0.280577323323  0.212313949269  1  1  1  
0.118106995254  0.280258456327  0.662587545111  1  1  1  
0.175722933172  0.273677566445  0.465192902790  1  1  1  
0.090550006272  0.271529506040  0.262864468402  1  1  1  
0.004307588347  0.268547518273  0.073051101162  1  1  1  
0.395362774423  0.210345268388  0.928799612341  1  1  1  
0.447397088501  0.206627954050  0.727462812880  1  1  1  
0.278546488156  0.204760270490  0.333601667132  1  1  1  
0.360912841844  0.200192052425  0.533258552896  1  1  1  
0.144421564571  0.198016802861  0.982465689896  1  1  1  
0.332688543401  0.196386200824  0.117604746555  1  1  1  
0.200617779250  0.193470671874  0.779669137297  1  1  1  
0.115674389460  0.191546352294  0.576547032592  1  1  1  
0.032204942853  0.190449760391  0.383420066544  1  1  1  
0.089919008851  0.182875704881  0.174426282316  1  1  1  
0.413690000807  0.127142414430  0.250299990206  0  0  0  
0.470494985575  0.118812933555  0.040419999530  0  0  0  
0.385749995740  0.118557862939  0.849259972561  0  0  0  
0.303319990660  0.117306441083  0.644909977881  0  0  0  
0.170965001021  0.114038407804  0.307220011954  0  0  0  
0.359120011309  0.111973971141  0.442050009947  0  0  0  
0.142014995208  0.109542869042  0.892340004404  0  0  0  
0.056749999573  0.107167571800  0.698360025903  0  0  0  
0.224665000990  0.104903861871  0.091190002872  0  0  0  
0.108214996716  0.100368469941  0.496030002856  0  0  0  
0.000964999982  0.039790291337  0.357479989502  0  0  0  
0.412835001956  0.038546849060  0.164590001144  0  0  0  
0.324734985865  0.035788949587  0.960469961145  0  0  0  
0.437864989088  0.031620208159  0.564029991604  0  0  0  
0.383234977738  0.030336910847  0.762780010665  0  0  0  
0.167870000002  0.029778949936  0.214029997610  0  0  0  
0.081110000566  0.027092790248  0.019460000083  0  0  0  
0.189555004196  0.024550100796  0.618539989028  0  0  0  
0.252149999122  0.024502279251  0.419440001242  0  0  0  
0.131804987766  0.020556719955  0.812569975857  0  0  0  
0.867529793747  0.290250309995  0.619886167945  1  1  1  
0.814863826259  0.297590525887  0.819856580778  1  1  1  
0.754673705241  0.289616297391  0.004081219994  1  1  1  
0.922972138858  0.281930858327  0.404570199302  1  1  1  
0.562426191130  0.281845392406  0.860509442821  1  1  1  
0.835214816433  0.280366608437  0.209915261548  1  1  1  
0.622238071391  0.282692521601  0.656262940005  1  1  1  
0.675234993524  0.276698189509  0.463524647488  1  1  1  
0.591007925778  0.271656658503  0.259319098153  1  1  1  
0.501369826630  0.271430916539  0.067863223161  1  1  1  
0.895393605363  0.210214459305  0.928388622187  1  1  1  
0.944727161223  0.205723030779  0.729195885867  1  1  1  
0.778522224823  0.205266183970  0.333512233863  1  1  1  
0.862778555543  0.201054038731  0.532548404581  1  1  1  
0.644322254436  0.199791551528  0.980623286508  1  1  1  
0.830905295447  0.196221918398  0.116228671249  1  1  1  
0.699538884310  0.197347233369  0.782088905556  1  1  1  
0.617344431560  0.191511338231  0.575130054403  1  1  1  
0.533141083086  0.190973418971  0.383640232882  1  1  1  
0.589108216490  0.183575394627  0.173052517588  1  1  1  
0.913689970931  0.127142414430  0.250299990206  0  0  0  
0.970494985560  0.118812933555  0.040419999530  0  0  0  
0.885749995725  0.118557862939  0.849259972561  0  0  0  
0.803319990645  0.117306441083  0.644909977881  0  0  0  
0.670965015936  0.114038407804  0.307220011954  0  0  0  
0.859120011294  0.111973971141  0.442050009947  0  0  0  
0.642014980363  0.109542869042  0.892340004404  0  0  0  
0.556749999558  0.107167571800  0.698360025903  0  0  0  
0.724664986145  0.104903861871  0.091190002872  0  0  0  
0.608214974456  0.100368469941  0.496030002856  0  0  0  
0.500964999165  0.039790291337  0.357479989502  0  0  0  
0.912835001941  0.038546849060  0.164590001144  0  0  0  
0.824734985850  0.035788949587  0.960469961145  0  0  0  
0.937865018833  0.031620208159  0.564029991604  0  0  0  
0.883234977723  0.030336910847  0.762780010665  0  0  0  
0.667869985057  0.029778949936  0.214029997610  0  0  0  
0.581110000651  0.027092790248  0.019460000083  0  0  0  
0.689554989351  0.024550100796  0.618539989028  0  0  0  
0.752149999107  0.024502279251  0.419440001242  0  0  0  
0.631805002681  0.020556719955  0.812569975857  0  0  0  

H 
0.000
1
0.669964445972  0.380863283291  0.896734198559  1  1  1  

O 
0.000
1
0.710731299018  0.389614914987  0.582404468187  1  1  1  
