ATOMIC_SPECIES
H 1.008 H_ONCV_PBE-1.0.upf

NUMERICAL_ORBITAL
H_gga_6au_100Ry_2s1p.orb

LATTICE_CONSTANT
1.889726

LATTICE_VECTORS
10.000000 0.000000 0.000000
0.000000 10.000000 0.000000
0.000000 0.000000 10.000000

ATOMIC_POSITIONS
Cartesian

H
0.0
2
0.000000 0.000000 0.000000 1 1 1 mag 0.0
0.900000 0.000000 0.000000 1 1 1 mag 0.0
