ATOMIC_SPECIES
C 12.011 C_ONCV_PBE-1.0.upf upf201
O 15.999 O_ONCV_PBE-1.0.upf upf201
Pt 195.085 Pt_ONCV_PBE-1.0.upf upf201

NUMERICAL_ORBITAL
C_gga_7au_100Ry_2s2p1d.orb
O_gga_7au_100Ry_2s2p1d.orb
Pt_gga_7au_100Ry_4s2p2d1f.orb

LATTICE_CONSTANT
1.889726

LATTICE_VECTORS
   11.1873990198     0.0000000000     0.0000000000 #latvec1
    0.0000000000    18.8508982273     0.0000000000 #latvec2
   -5.5936995315     0.0000000000     9.6885711886 #latvec3

ATOMIC_POSITIONS
Direct

C #label
0 #magnetism
1 #number of atoms
    0.6290880000     0.4336920000     0.6872130000 m  1  1  1

O #label
0 #magnetism
1 #number of atoms
    0.6310940000     0.4970670000     0.6868990000 m  1  1  1

Pt #label
0 #magnetism
64 #number of atoms
    0.0445520000     0.0000000000     0.0222760000 m  0  0  0
    0.2945520000     0.0000000000     0.0222760000 m  0  0  0
    0.5445520000     0.0000000000     0.0222760000 m  0  0  0
    0.7945520000     0.0000000000     0.0222760000 m  0  0  0
    0.0445520000     0.0000000000     0.2722760000 m  0  0  0
    0.2945520000     0.0000000000     0.2722760000 m  0  0  0
    0.5445520000     0.0000000000     0.2722760000 m  0  0  0
    0.7945520000     0.0000000000     0.2722760000 m  0  0  0
    0.2945520000     0.0000000000     0.5222760000 m  0  0  0
    0.5445520000     0.0000000000     0.5222760000 m  0  0  0
    0.7945520000     0.0000000000     0.5222760000 m  0  0  0
    0.0445520000     0.0000000000     0.5222760000 m  0  0  0
    0.0445520000     0.0000000000     0.7722760000 m  0  0  0
    0.2945520000     0.0000000000     0.7722760000 m  0  0  0
    0.5445520000     0.0000000000     0.7722760000 m  0  0  0
    0.7945520000     0.0000000000     0.7722760000 m  0  0  0
    0.8776870000     0.1206270000     0.1887520000 m  1  1  1
    0.8777210000     0.1206150000     0.4389340000 m  1  1  1
    0.8775640000     0.1208280000     0.9383290000 m  1  1  1
    0.6276410000     0.1204290000     0.1887120000 m  1  1  1
    0.3778420000     0.1204420000     0.1884650000 m  1  1  1
    0.1280080000     0.1204820000     0.1888330000 m  1  1  1
    0.8776380000     0.1208390000     0.6890990000 m  1  1  1
    0.1284510000     0.1204420000     0.9390030000 m  1  1  1
    0.6275080000     0.1208400000     0.4391070000 m  1  1  1
    0.3777570000     0.1205060000     0.9388280000 m  1  1  1
    0.1280060000     0.1206600000     0.4389020000 m  1  1  1
    0.6274800000     0.1209170000     0.9381990000 m  1  1  1
    0.6277240000     0.1220600000     0.6888810000 m  1  1  1
    0.1280280000     0.1205080000     0.6889020000 m  1  1  1
    0.3783210000     0.1208670000     0.4391450000 m  1  1  1
    0.3784030000     0.1208710000     0.6890310000 m  1  1  1
    0.9586060000     0.2398750000     0.8539590000 m  1  1  1
    0.9613100000     0.2387980000     0.1053250000 m  1  1  1
    0.9610400000     0.2393710000     0.3551890000 m  1  1  1
    0.4609990000     0.2387620000     0.1050090000 m  1  1  1
    0.7107960000     0.2388060000     0.1051790000 m  1  1  1
    0.7106390000     0.2386960000     0.3548220000 m  1  1  1
    0.9613410000     0.2388340000     0.6054620000 m  1  1  1
    0.2112440000     0.2386630000     0.1051440000 m  1  1  1
    0.4622620000     0.2400320000     0.3576810000 m  1  1  1
    0.2114080000     0.2387050000     0.8553100000 m  1  1  1
    0.7107680000     0.2410590000     0.8547490000 m  1  1  1
    0.7109340000     0.2409320000     0.6054020000 m  1  1  1
    0.2111390000     0.2388480000     0.3549960000 m  1  1  1
    0.4624890000     0.2402210000     0.8536420000 m  1  1  1
    0.4614290000     0.2412420000     0.6054550000 m  1  1  1
    0.2111500000     0.2389440000     0.6054340000 m  1  1  1
    0.0442870000     0.3600560000     0.2713660000 m  1  1  1
    0.5439080000     0.3596670000     0.2707110000 m  1  1  1
    0.0445530000     0.3600870000     0.5218100000 m  1  1  1
    0.5439450000     0.3598220000     0.0213770000 m  1  1  1
    0.0447330000     0.3595980000     0.0217140000 m  1  1  1
    0.7939150000     0.3599360000     0.2711170000 m  1  1  1
    0.2943250000     0.3596150000     0.0214670000 m  1  1  1
    0.7983350000     0.3648910000     0.7734140000 m  1  1  1
    0.7962850000     0.3594120000     0.0257970000 m  1  1  1
    0.7964210000     0.3593160000     0.5190630000 m  1  1  1
    0.0448990000     0.3595570000     0.7716550000 m  1  1  1
    0.2939870000     0.3597690000     0.2709620000 m  1  1  1
    0.5418930000     0.3653540000     0.5170650000 m  1  1  1
    0.5421720000     0.3660210000     0.7731280000 m  1  1  1
    0.2942250000     0.3597620000     0.7717400000 m  1  1  1
    0.2897920000     0.3595320000     0.5191780000 m  1  1  1
