ATOMIC_SPECIES
H   1.008         H_ONCV_PBE-1.0.upf
Au  196.966569    Au_ONCV_PBE-1.0.upf

NUMERICAL_ORBITAL
H_gga_6au_100Ry_2s1p.orb
Au_gga_7au_100Ry_4s2p2d1f.orb

LATTICE_CONSTANT
1.889726

LATTICE_VECTORS
11.535196000      0.0000000000      0.0000000000      
0.0000000000      19.063794000      0.0000000000      
-5.767598000      0.0000000000      9.9897730000      

ATOMIC_POSITIONS
Direct

H
0.0000000000
2
0.5344850000 0.5543370000 0.6605000000 1 1 1 mag 0.0 
0.4231140000 0.5577130000 0.5466820000 1 1 1 mag 0.0 

Au
0.0000000000
64
0.0400220000 0.0995420000 0.0400430000 0 0 0 mag 0.0 
0.2900110000 0.0994650000 0.0399930000 0 0 0 mag 0.0 
0.5400320000 0.0995210000 0.0399310000 0 0 0 mag 0.0 
0.7900030000 0.0995810000 0.0399630000 0 0 0 mag 0.0 
0.0400590000 0.0995870000 0.2900230000 0 0 0 mag 0.0 
0.2900040000 0.0995520000 0.2900120000 0 0 0 mag 0.0 
0.5400250000 0.0994920000 0.2899890000 0 0 0 mag 0.0 
0.7900790000 0.0995160000 0.2899530000 0 0 0 mag 0.0 
0.0400910000 0.0995250000 0.5399930000 0 0 0 mag 0.0 
0.2900300000 0.0995860000 0.5399950000 0 0 0 mag 0.0 
0.5400120000 0.0995620000 0.5400070000 0 0 0 mag 0.0 
0.7900350000 0.0994910000 0.5400000000 0 0 0 mag 0.0 
0.0400460000 0.0994640000 0.7900200000 0 0 0 mag 0.0 
0.2900400000 0.0995200000 0.7899840000 0 0 0 mag 0.0 
0.5400260000 0.0995820000 0.7899880000 0 0 0 mag 0.0 
0.7900200000 0.0995470000 0.7900240000 0 0 0 mag 0.0 
0.1232720000 0.2229130000 0.2065740000 0 0 0 mag 0.0 
0.3732650000 0.2227610000 0.2064450000 0 0 0 mag 0.0 
0.6233940000 0.2228580000 0.2065580000 0 0 0 mag 0.0 
0.8733750000 0.2229740000 0.2066510000 0 0 0 mag 0.0 
0.1232500000 0.2228850000 0.4566100000 0 0 0 mag 0.0 
0.3732590000 0.2227390000 0.4565540000 0 0 0 mag 0.0 
0.6234890000 0.2226980000 0.4565500000 0 0 0 mag 0.0 
0.8734670000 0.2228590000 0.4566390000 0 0 0 mag 0.0 
0.1233680000 0.2228270000 0.7067450000 0 0 0 mag 0.0 
0.3733050000 0.2227700000 0.7067340000 0 0 0 mag 0.0 
0.6234820000 0.2227420000 0.7067750000 0 0 0 mag 0.0 
0.8735930000 0.2227620000 0.7067770000 0 0 0 mag 0.0 
0.1233690000 0.2228760000 0.9567030000 0 0 0 mag 0.0 
0.3732960000 0.2228260000 0.9566640000 0 0 0 mag 0.0 
0.6234240000 0.2228890000 0.9567740000 0 0 0 mag 0.0 
0.8734580000 0.2229150000 0.9567570000 0 0 0 mag 0.0 
0.2077230000 0.3463700000 0.1244920000 1 1 1 mag 0.0 
0.4562990000 0.3460990000 0.1226200000 1 1 1 mag 0.0 
0.7062690000 0.3469320000 0.1232230000 1 1 1 mag 0.0 
0.9567650000 0.3468470000 0.1233120000 1 1 1 mag 0.0 
0.2072970000 0.3474210000 0.3737790000 1 1 1 mag 0.0 
0.4580890000 0.3492230000 0.3772770000 1 1 1 mag 0.0 
0.7068910000 0.3462620000 0.3732030000 1 1 1 mag 0.0 
0.9567440000 0.3468900000 0.3737640000 1 1 1 mag 0.0 
0.2092340000 0.3485730000 0.6225870000 1 1 1 mag 0.0 
0.4567960000 0.3474960000 0.6234770000 1 1 1 mag 0.0 
0.7031000000 0.3492240000 0.6222220000 1 1 1 mag 0.0 
0.9575430000 0.3460990000 0.6238270000 1 1 1 mag 0.0 
0.2066540000 0.3459140000 0.8735840000 1 1 1 mag 0.0 
0.4577700000 0.3487640000 0.8708860000 1 1 1 mag 0.0 
0.7063000000 0.3474180000 0.8728590000 1 1 1 mag 0.0 
0.9556990000 0.3463990000 0.8724860000 1 1 1 mag 0.0 
0.0406280000 0.4741190000 0.0398840000 1 1 1 mag 0.0 
0.2901180000 0.4737740000 0.0406440000 1 1 1 mag 0.0 
0.5394340000 0.4737300000 0.0382090000 1 1 1 mag 0.0 
0.7909170000 0.4737780000 0.0408690000 1 1 1 mag 0.0 
0.0395370000 0.4738050000 0.2894100000 1 1 1 mag 0.0 
0.2897100000 0.4751700000 0.2882030000 1 1 1 mag 0.0 
0.5404190000 0.4729750000 0.2914550000 1 1 1 mag 0.0 
0.7901740000 0.4738700000 0.2899180000 1 1 1 mag 0.0 
0.0419200000 0.4737530000 0.5407600000 1 1 1 mag 0.0 
0.2895210000 0.4829580000 0.5337760000 1 1 1 mag 0.0 
0.5361830000 0.4902880000 0.5433820000 1 1 1 mag 0.0 
0.7890720000 0.4729540000 0.5398540000 1 1 1 mag 0.0 
0.0397220000 0.4737340000 0.7902410000 1 1 1 mag 0.0 
0.2909190000 0.4732550000 0.7895020000 1 1 1 mag 0.0 
0.5469260000 0.4838150000 0.7903830000 1 1 1 mag 0.0 
0.7926850000 0.4752550000 0.7908950000 1 1 1 mag 0.0 

