ATOMIC_SPECIES
C   12.011        C_ONCV_PBE-1.0.upf
Pt  195.084       Pt_ONCV_PBE-1.0.upf
H   1.008         H_ONCV_PBE-1.0.upf

NUMERICAL_ORBITAL
C_gga_7au_100Ry_2s2p1d.orb
Pt_gga_7au_100Ry_4s2p2d1f.orb
H_gga_6au_100Ry_2s1p.orb

LATTICE_CONSTANT
1.8897261258369282 

LATTICE_VECTORS
12.322700000      0.0000000000      0.0000000000      
0.0000000000      20.000000000      0.0000000000      
-6.161540000      0.0000000000      10.671500000      

ATOMIC_POSITIONS
Direct

C
0.0000000000
54
0.0318940000 0.4988370000 0.0302600000 1 1 1 v 0.0 0.0 0.0 mag 0.0 
0.1659860000 0.4974870000 0.0991030000 1 1 1 v 0.0 0.0 0.0 mag 0.0 
0.2337320000 0.4970450000 0.0338280000 1 1 1 v 0.0 0.0 0.0 mag 0.0 
0.3675630000 0.4994810000 0.1020800000 1 1 1 v 0.0 0.0 0.0 mag 0.0 
0.4326180000 0.4948680000 0.0335940000 1 1 1 v 0.0 0.0 0.0 mag 0.0 
0.5657120000 0.4946390000 0.0980450000 1 1 1 v 0.0 0.0 0.0 mag 0.0 
0.6312880000 0.4925330000 0.0301270000 1 1 1 v 0.0 0.0 0.0 mag 0.0 
0.7643930000 0.4938070000 0.0947260000 1 1 1 v 0.0 0.0 0.0 mag 0.0 
0.8297980000 0.4978400000 0.0262520000 1 1 1 v 0.0 0.0 0.0 mag 0.0 
0.9639970000 0.4962790000 0.0951730000 1 1 1 v 0.0 0.0 0.0 mag 0.0 
0.0304550000 0.4906290000 0.2283890000 1 1 1 v 0.0 0.0 0.0 mag 0.0 
0.1640000000 0.4902180000 0.2967160000 1 1 1 v 0.0 0.0 0.0 mag 0.0 
0.2332010000 0.4959280000 0.2330300000 1 1 1 v 0.0 0.0 0.0 mag 0.0 
0.3681870000 0.5018160000 0.3037250000 1 1 1 v 0.0 0.0 0.0 mag 0.0 
0.4349610000 0.5072570000 0.2352610000 1 1 1 v 0.0 0.0 0.0 mag 0.0 
0.5689540000 0.5134080000 0.2978650000 1 1 1 v 0.0 0.0 0.0 mag 0.0 
0.6335370000 0.5004900000 0.2309210000 1 1 1 v 0.0 0.0 0.0 mag 0.0 
0.7665680000 0.4964770000 0.2959420000 1 1 1 v 0.0 0.0 0.0 mag 0.0 
0.8316300000 0.4919820000 0.2282130000 1 1 1 v 0.0 0.0 0.0 mag 0.0 
0.9646330000 0.4884890000 0.2956300000 1 1 1 v 0.0 0.0 0.0 mag 0.0 
0.0309160000 0.4850680000 0.4296660000 1 1 1 v 0.0 0.0 0.0 mag 0.0 
0.1629770000 0.4827440000 0.4976410000 1 1 1 v 0.0 0.0 0.0 mag 0.0 
0.2278350000 0.4861190000 0.4299690000 1 1 1 v 0.0 0.0 0.0 mag 0.0 
0.3591970000 0.4899710000 0.4973810000 1 1 1 v 0.0 0.0 0.0 mag 0.0 
0.4288010000 0.4996140000 0.4367770000 1 1 1 v 0.0 0.0 0.0 mag 0.0 
0.6450570000 0.5316080000 0.4265530000 1 1 1 v 0.0 0.0 0.0 mag 0.0 
0.7742000000 0.5161140000 0.4957300000 1 1 1 v 0.0 0.0 0.0 mag 0.0 
0.8351970000 0.4981050000 0.4294950000 1 1 1 v 0.0 0.0 0.0 mag 0.0 
0.9664900000 0.4893880000 0.4974640000 1 1 1 v 0.0 0.0 0.0 mag 0.0 
0.0332710000 0.4909920000 0.6314390000 1 1 1 v 0.0 0.0 0.0 mag 0.0 
0.1650520000 0.4855320000 0.6994430000 1 1 1 v 0.0 0.0 0.0 mag 0.0 
0.2293180000 0.4816090000 0.6319140000 1 1 1 v 0.0 0.0 0.0 mag 0.0 
0.3615310000 0.4831940000 0.7001980000 1 1 1 v 0.0 0.0 0.0 mag 0.0 
0.4252630000 0.4895330000 0.6333130000 1 1 1 v 0.0 0.0 0.0 mag 0.0 
0.5529340000 0.5034010000 0.6963910000 1 1 1 v 0.0 0.0 0.0 mag 0.0 
0.7743010000 0.5233290000 0.6956670000 1 1 1 v 0.0 0.0 0.0 mag 0.0 
0.8401160000 0.5151550000 0.6309860000 1 1 1 v 0.0 0.0 0.0 mag 0.0 
0.9697290000 0.5012150000 0.6987120000 1 1 1 v 0.0 0.0 0.0 mag 0.0 
0.0339000000 0.4999420000 0.8320600000 1 1 1 v 0.0 0.0 0.0 mag 0.0 
0.1668980000 0.4946620000 0.9003720000 1 1 1 v 0.0 0.0 0.0 mag 0.0 
0.2323390000 0.4890810000 0.8333280000 1 1 1 v 0.0 0.0 0.0 mag 0.0 
0.3652870000 0.4890380000 0.9008030000 1 1 1 v 0.0 0.0 0.0 mag 0.0 
0.4307190000 0.4867170000 0.8331450000 1 1 1 v 0.0 0.0 0.0 mag 0.0 
0.5636160000 0.4913820000 0.8969360000 1 1 1 v 0.0 0.0 0.0 mag 0.0 
0.6275710000 0.4997410000 0.8273620000 1 1 1 v 0.0 0.0 0.0 mag 0.0 
0.7627370000 0.5046050000 0.8929980000 1 1 1 v 0.0 0.0 0.0 mag 0.0 
0.8311020000 0.5106830000 0.8268150000 1 1 1 v 0.0 0.0 0.0 mag 0.0 
0.9652680000 0.5034710000 0.8963670000 1 1 1 v 0.0 0.0 0.0 mag 0.0 
0.6324580000 0.6405810000 0.6480810000 1 1 1 v 0.0 0.0 0.0 mag 0.0 
0.7640650000 0.6691590000 0.7171130000 1 1 1 v 0.0 0.0 0.0 mag 0.0 
0.7588760000 0.7454340000 0.7310780000 1 1 1 v 0.0 0.0 0.0 mag 0.0 
0.6840840000 0.7636300000 0.7952290000 1 1 1 v 0.0 0.0 0.0 mag 0.0 
0.5528570000 0.7331790000 0.7256660000 1 1 1 v 0.0 0.0 0.0 mag 0.0 
0.5590500000 0.6567230000 0.7136500000 1 1 1 v 0.0 0.0 0.0 mag 0.0 

Pt
0.0000000000
1
0.5946810000 0.5401420000 0.5725730000 1 1 1 v 0.0 0.0 0.0 mag 0.0 

H
0.0000000000
12
0.5002740000 0.7446100000 0.7737960000 1 1 1 v 0.0 0.0 0.0 mag 0.0 
0.5826270000 0.6631120000 0.5532820000 1 1 1 v 0.0 0.0 0.0 mag 0.0 
0.8153970000 0.6574190000 0.6679400000 1 1 1 v 0.0 0.0 0.0 mag 0.0 
0.8167760000 0.6465370000 0.8107320000 1 1 1 v 0.0 0.0 0.0 mag 0.0 
0.8547730000 0.7652870000 0.7838550000 1 1 1 v 0.0 0.0 0.0 mag 0.0 
0.7149870000 0.7688490000 0.6376240000 1 1 1 v 0.0 0.0 0.0 mag 0.0 
0.6783190000 0.8182430000 0.8013140000 1 1 1 v 0.0 0.0 0.0 mag 0.0 
0.7335500000 0.7447160000 0.8922030000 1 1 1 v 0.0 0.0 0.0 mag 0.0 
0.4998940000 0.7554150000 0.6314020000 1 1 1 v 0.0 0.0 0.0 mag 0.0 
0.4636840000 0.6361890000 0.6621010000 1 1 1 v 0.0 0.0 0.0 mag 0.0 
0.6049570000 0.6343810000 0.8076560000 1 1 1 v 0.0 0.0 0.0 mag 0.0 
0.6177740000 0.5820270000 0.4513630000 1 1 1 v 0.0 0.0 0.0 mag 0.0 

