ATOMIC_SPECIES
H    1.008  H_ONCV_PBE-1.0.upf
C   12.011  C_ONCV_PBE-1.0.upf
O   15.999  O_ONCV_PBE-1.0.upf
Al   26.982  Al_ONCV_PBE-1.0.upf
Si   28.085  Si_ONCV_PBE-1.0.upf
Pd  106.421  Pd_ONCV_PBE-1.0.upf
Au  196.967  Au_ONCV_PBE-1.0.upf

NUMERICAL_ORBITAL
H_gga_6au_100Ry_2s1p.orb
C_gga_7au_100Ry_2s2p1d.orb
O_gga_7au_100Ry_2s2p1d.orb
Al_gga_7au_100Ry_4s4p1d.orb
Si_gga_7au_100Ry_2s2p1d.orb
Pd_gga_7au_100Ry_4s2p2d1f.orb
Au_gga_7au_100Ry_4s2p2d1f.orb

LATTICE_CONSTANT
1.889726

LATTICE_VECTORS
20.53103000000  0.000000000000  0.000000000000
0.000000000000  20.30340000000  0.000000000000
0.000000000000  0.000000000000  13.62973000000

ATOMIC_POSITIONS
Direct

H 
0.000
6
0.676635000000  0.497917000000  0.319349000000  1  1  1  mag  0.0
0.434006000000  0.466175000000  0.370559000000  1  1  1  mag  0.0
0.631704000000  0.449472000000  0.418098000000  1  1  1  mag  0.0
0.635596000000  0.538884000000  0.422983000000  1  1  1  mag  0.0
0.712663000000  0.494433000000  0.443707000000  1  1  1  mag  0.0
0.613194000000  0.371214000000  0.472545000000  1  1  1  mag  0.0

C 
0.000
1
0.669174000000  0.500449000000  0.398552000000  1  1  1  mag  0.0

O 
0.000
194
0.558705000000  0.335171000000  0.043125000000  1  1  1  mag  0.0
0.547618000000  0.744777000000  0.043554000000  1  1  1  mag  0.0
0.553693000000  0.128631000000  0.049483000000  1  1  1  mag  0.0
0.557056000000  0.529487000000  0.060009000000  1  1  1  mag  0.0
0.066849000000  0.233924000000  0.077321000000  1  1  1  mag  0.0
0.060424000000  0.025908000000  0.078738000000  1  1  1  mag  0.0
0.057605000000  0.829739000000  0.079910000000  1  1  1  mag  0.0
0.643587000000  0.432136000000  0.080848000000  1  1  1  mag  0.0
0.653130000000  0.815875000000  0.082103000000  1  1  1  mag  0.0
0.472494000000  0.430269000000  0.082118000000  1  1  1  mag  0.0
0.839843000000  0.847003000000  0.086579000000  1  1  1  mag  0.0
0.441516000000  0.677220000000  0.087656000000  1  1  1  mag  0.0
0.845194000000  0.012594000000  0.090046000000  1  1  1  mag  0.0
0.060945000000  0.626594000000  0.091212000000  1  1  1  mag  0.0
0.440181000000  0.808527000000  0.094482000000  1  1  1  mag  0.0
0.839608000000  0.613822000000  0.093350000000  1  1  1  mag  0.0
0.853587000000  0.247760000000  0.094170000000  1  1  1  mag  0.0
0.656225000000  0.684861000000  0.095224000000  1  1  1  mag  0.0
0.664533000000  0.184185000000  0.101493000000  1  1  1  mag  0.0
0.652981000000  0.053138000000  0.103115000000  1  1  1  mag  0.0
0.677192000000  0.556039000000  0.112562000000  1  1  1  mag  0.0
0.458803000000  0.050601000000  0.115446000000  1  1  1  mag  0.0
0.448321000000  0.180123000000  0.131235000000  1  1  1  mag  0.0
0.440795000000  0.550330000000  0.134929000000  1  1  1  mag  0.0
0.667980000000  0.312311000000  0.141485000000  1  1  1  mag  0.0
0.449942000000  0.311147000000  0.145504000000  1  1  1  mag  0.0
0.680543000000  0.932505000000  0.157215000000  1  1  1  mag  0.0
0.829814000000  0.130244000000  0.167878000000  1  1  1  mag  0.0
0.440152000000  0.927902000000  0.167778000000  1  1  1  mag  0.0
0.832468000000  0.731638000000  0.176079000000  1  1  1  mag  0.0
0.062346000000  0.129560000000  0.197797000000  1  1  1  mag  0.0
0.059708000000  0.731595000000  0.210075000000  1  1  1  mag  0.0
0.746552000000  0.826396000000  0.217431000000  1  1  1  mag  0.0
0.744342000000  0.639421000000  0.220445000000  1  1  1  mag  0.0
0.755017000000  0.232053000000  0.220027000000  1  1  1  mag  0.0
0.753309000000  0.031305000000  0.224212000000  1  1  1  mag  0.0
0.363235000000  0.632315000000  0.227896000000  1  1  1  mag  0.0
0.133410000000  0.023013000000  0.234605000000  1  1  1  mag  0.0
0.126269000000  0.841765000000  0.240027000000  1  1  1  mag  0.0
0.999969000000  0.238788000000  0.242988000000  1  1  1  mag  0.0
0.129881000000  0.236985000000  0.244386000000  1  1  1  mag  0.0
0.366076000000  0.835680000000  0.248602000000  1  1  1  mag  0.0
0.996091000000  0.841434000000  0.249064000000  1  1  1  mag  0.0
0.004290000000  0.019692000000  0.254078000000  1  1  1  mag  0.0
0.992040000000  0.624744000000  0.254492000000  1  1  1  mag  0.0
0.618748000000  0.620953000000  0.257352000000  1  1  1  mag  0.0
0.489879000000  0.638343000000  0.259983000000  1  1  1  mag  0.0
0.374400000000  0.241086000000  0.261195000000  1  1  1  mag  0.0
0.121740000000  0.622668000000  0.261796000000  1  1  1  mag  0.0
0.377063000000  0.022460000000  0.261838000000  1  1  1  mag  0.0
0.493900000000  0.829790000000  0.269834000000  1  1  1  mag  0.0
0.623615000000  0.842877000000  0.268414000000  1  1  1  mag  0.0
0.868215000000  0.837675000000  0.276791000000  1  1  1  mag  0.0
0.876475000000  0.032758000000  0.277396000000  1  1  1  mag  0.0
0.633318000000  0.228431000000  0.280974000000  1  1  1  mag  0.0
0.864190000000  0.626782000000  0.283948000000  1  1  1  mag  0.0
0.874490000000  0.225576000000  0.284296000000  1  1  1  mag  0.0
0.503337000000  0.239354000000  0.285146000000  1  1  1  mag  0.0
0.504323000000  0.006490000000  0.287608000000  1  1  1  mag  0.0
0.633672000000  0.017334000000  0.289762000000  1  1  1  mag  0.0
0.252304000000  0.035309000000  0.302261000000  1  1  1  mag  0.0
0.246682000000  0.633186000000  0.305657000000  1  1  1  mag  0.0
0.250219000000  0.225960000000  0.307753000000  1  1  1  mag  0.0
0.245173000000  0.823189000000  0.308021000000  1  1  1  mag  0.0
0.558919000000  0.123566000000  0.309126000000  1  1  1  mag  0.0
0.569300000000  0.731707000000  0.326518000000  1  1  1  mag  0.0
0.336067000000  0.130703000000  0.349535000000  1  1  1  mag  0.0
0.331148000000  0.729691000000  0.350396000000  1  1  1  mag  0.0
0.180368000000  0.931737000000  0.355979000000  1  1  1  mag  0.0
0.938997000000  0.932017000000  0.359404000000  1  1  1  mag  0.0
0.945970000000  0.309598000000  0.384445000000  1  1  1  mag  0.0
0.937364000000  0.549893000000  0.392412000000  1  1  1  mag  0.0
0.169648000000  0.309125000000  0.396435000000  1  1  1  mag  0.0
0.430043000000  0.426304000000  0.410601000000  1  1  1  mag  0.0
0.962899000000  0.181271000000  0.409742000000  1  1  1  mag  0.0
0.171395000000  0.556630000000  0.413639000000  1  1  1  mag  0.0
0.942368000000  0.679787000000  0.415944000000  1  1  1  mag  0.0
0.151957000000  0.180253000000  0.416728000000  1  1  1  mag  0.0
0.350633000000  0.609799000000  0.418338000000  1  1  1  mag  0.0
0.159827000000  0.687315000000  0.423028000000  1  1  1  mag  0.0
0.553803000000  0.619427000000  0.424581000000  1  1  1  mag  0.0
0.151032000000  0.048735000000  0.424048000000  1  1  1  mag  0.0
0.947835000000  0.810571000000  0.425588000000  1  1  1  mag  0.0
0.954722000000  0.051447000000  0.429655000000  1  1  1  mag  0.0
0.143593000000  0.817681000000  0.430067000000  1  1  1  mag  0.0
0.561288000000  0.839589000000  0.435038000000  1  1  1  mag  0.0
0.338759000000  0.845238000000  0.439043000000  1  1  1  mag  0.0
0.590816000000  0.407307000000  0.437801000000  1  1  1  mag  0.0
0.142744000000  0.431562000000  0.447573000000  1  1  1  mag  0.0
0.336635000000  0.242843000000  0.448007000000  1  1  1  mag  0.0
0.335302000000  0.017812000000  0.447398000000  1  1  1  mag  0.0
0.570488000000  0.216797000000  0.447754000000  1  1  1  mag  0.0
0.965794000000  0.429030000000  0.449683000000  1  1  1  mag  0.0
0.565784000000  0.034809000000  0.452821000000  1  1  1  mag  0.0
0.052525000000  0.525970000000  0.470845000000  1  1  1  mag  0.0
0.055784000000  0.335698000000  0.480355000000  1  1  1  mag  0.0
0.048310000000  0.737159000000  0.484403000000  1  1  1  mag  0.0
0.055309000000  0.117402000000  0.505200000000  1  1  1  mag  0.0
0.455204000000  0.242254000000  0.523959000000  1  1  1  mag  0.0
0.450938000000  0.833416000000  0.534763000000  1  1  1  mag  0.0
0.448909000000  0.027893000000  0.536386000000  1  1  1  mag  0.0
0.449564000000  0.621562000000  0.541390000000  1  1  1  mag  0.0
0.535030000000  0.932276000000  0.565714000000  1  1  1  mag  0.0
0.943470000000  0.330810000000  0.575620000000  1  1  1  mag  0.0
0.945858000000  0.521709000000  0.582139000000  1  1  1  mag  0.0
0.366871000000  0.928864000000  0.581662000000  1  1  1  mag  0.0
0.348564000000  0.543233000000  0.583802000000  1  1  1  mag  0.0
0.173354000000  0.116744000000  0.583234000000  1  1  1  mag  0.0
0.164146000000  0.341918000000  0.585242000000  1  1  1  mag  0.0
0.938793000000  0.128896000000  0.584967000000  1  1  1  mag  0.0
0.938639000000  0.739630000000  0.587771000000  1  1  1  mag  0.0
0.555874000000  0.687485000000  0.590599000000  1  1  1  mag  0.0
0.336491000000  0.674689000000  0.587661000000  1  1  1  mag  0.0
0.561723000000  0.303620000000  0.592322000000  1  1  1  mag  0.0
0.155317000000  0.750655000000  0.592996000000  1  1  1  mag  0.0
0.556246000000  0.556807000000  0.592621000000  1  1  1  mag  0.0
0.150042000000  0.513394000000  0.597008000000  1  1  1  mag  0.0
0.359775000000  0.311111000000  0.605882000000  1  1  1  mag  0.0
0.358517000000  0.179765000000  0.615679000000  1  1  1  mag  0.0
0.340506000000  0.803695000000  0.624652000000  1  1  1  mag  0.0
0.564573000000  0.814410000000  0.626049000000  1  1  1  mag  0.0
0.541616000000  0.176279000000  0.627798000000  1  1  1  mag  0.0
0.339911000000  0.050900000000  0.636285000000  1  1  1  mag  0.0
0.557366000000  0.432995000000  0.645356000000  1  1  1  mag  0.0
0.555162000000  0.047447000000  0.645748000000  1  1  1  mag  0.0
0.168026000000  0.632105000000  0.668746000000  1  1  1  mag  0.0
0.332487000000  0.426202000000  0.673084000000  1  1  1  mag  0.0
0.170823000000  0.228819000000  0.681791000000  1  1  1  mag  0.0
0.942400000000  0.628619000000  0.692891000000  1  1  1  mag  0.0
0.948805000000  0.232598000000  0.705294000000  1  1  1  mag  0.0
0.254072000000  0.727237000000  0.714321000000  1  1  1  mag  0.0
0.254536000000  0.324853000000  0.720930000000  1  1  1  mag  0.0
0.244985000000  0.533013000000  0.727263000000  1  1  1  mag  0.0
0.259475000000  0.135900000000  0.723328000000  1  1  1  mag  0.0
0.634463000000  0.730759000000  0.730297000000  1  1  1  mag  0.0
0.869051000000  0.524605000000  0.735799000000  1  1  1  mag  0.0
0.634394000000  0.520393000000  0.737796000000  1  1  1  mag  0.0
0.877665000000  0.339979000000  0.739229000000  1  1  1  mag  0.0
0.007281000000  0.345625000000  0.742526000000  1  1  1  mag  0.0
0.633428000000  0.125776000000  0.744634000000  1  1  1  mag  0.0
0.007194000000  0.120482000000  0.749133000000  1  1  1  mag  0.0
0.006606000000  0.733771000000  0.751965000000  1  1  1  mag  0.0
0.505784000000  0.738273000000  0.755409000000  1  1  1  mag  0.0
0.877851000000  0.128650000000  0.755850000000  1  1  1  mag  0.0
0.876393000000  0.732852000000  0.755865000000  1  1  1  mag  0.0
0.996444000000  0.519003000000  0.760918000000  1  1  1  mag  0.0
0.637986000000  0.346052000000  0.761915000000  1  1  1  mag  0.0
0.378122000000  0.718168000000  0.762258000000  1  1  1  mag  0.0
0.506742000000  0.521345000000  0.768384000000  1  1  1  mag  0.0
0.136115000000  0.117618000000  0.770410000000  1  1  1  mag  0.0
0.133524000000  0.337114000000  0.775731000000  1  1  1  mag  0.0
0.498101000000  0.340264000000  0.775336000000  1  1  1  mag  0.0
0.134729000000  0.733215000000  0.783463000000  1  1  1  mag  0.0
0.123052000000  0.537115000000  0.783932000000  1  1  1  mag  0.0
0.379048000000  0.122886000000  0.788391000000  1  1  1  mag  0.0
0.378336000000  0.536290000000  0.790209000000  1  1  1  mag  0.0
0.508792000000  0.118103000000  0.794414000000  1  1  1  mag  0.0
0.369878000000  0.330263000000  0.800672000000  1  1  1  mag  0.0
0.751957000000  0.727470000000  0.805030000000  1  1  1  mag  0.0
0.753834000000  0.131891000000  0.805719000000  1  1  1  mag  0.0
0.752556000000  0.530171000000  0.809846000000  1  1  1  mag  0.0
0.760706000000  0.323735000000  0.812148000000  1  1  1  mag  0.0
0.668845000000  0.627839000000  0.838663000000  1  1  1  mag  0.0
0.446850000000  0.228756000000  0.840806000000  1  1  1  mag  0.0
0.461363000000  0.631345000000  0.841923000000  1  1  1  mag  0.0
0.671687000000  0.231516000000  0.843742000000  1  1  1  mag  0.0
0.830052000000  0.430575000000  0.860470000000  1  1  1  mag  0.0
0.064586000000  0.431372000000  0.861341000000  1  1  1  mag  0.0
0.062168000000  0.047474000000  0.887452000000  1  1  1  mag  0.0
0.058796000000  0.809010000000  0.889250000000  1  1  1  mag  0.0
0.831500000000  0.808515000000  0.899912000000  1  1  1  mag  0.0
0.064066000000  0.178865000000  0.902211000000  1  1  1  mag  0.0
0.834819000000  0.055610000000  0.904902000000  1  1  1  mag  0.0
0.055774000000  0.678709000000  0.913579000000  1  1  1  mag  0.0
0.050928000000  0.308656000000  0.919953000000  1  1  1  mag  0.0
0.649117000000  0.743660000000  0.922298000000  1  1  1  mag  0.0
0.840048000000  0.185947000000  0.924052000000  1  1  1  mag  0.0
0.443791000000  0.747771000000  0.924329000000  1  1  1  mag  0.0
0.839635000000  0.679246000000  0.926366000000  1  1  1  mag  0.0
0.855323000000  0.548926000000  0.927589000000  1  1  1  mag  0.0
0.652175000000  0.513999000000  0.930195000000  1  1  1  mag  0.0
0.864579000000  0.315194000000  0.930279000000  1  1  1  mag  0.0
0.658367000000  0.117179000000  0.935768000000  1  1  1  mag  0.0
0.045475000000  0.548769000000  0.937275000000  1  1  1  mag  0.0
0.863773000000  0.931076000000  0.942594000000  1  1  1  mag  0.0
0.453457000000  0.520700000000  0.944542000000  1  1  1  mag  0.0
0.672935000000  0.339542000000  0.950907000000  1  1  1  mag  0.0
0.443986000000  0.334573000000  0.954823000000  1  1  1  mag  0.0
0.035200000000  0.928399000000  0.954830000000  1  1  1  mag  0.0
0.439956000000  0.123184000000  0.957501000000  1  1  1  mag  0.0
0.955910000000  0.227913000000  0.977744000000  1  1  1  mag  0.0
0.950124000000  0.026868000000  0.978942000000  1  1  1  mag  0.0
0.946904000000  0.832797000000  0.980202000000  1  1  1  mag  0.0
0.949339000000  0.628268000000  0.992629000000  1  1  1  mag  0.0

Al
0.000
2
0.564973000000  0.350596000000  0.700254000000  1  1  1  mag  0.0
0.323972000000  0.513266000000  0.701664000000  1  1  1  mag  0.0

Si
0.000
94
0.626267000000  0.747202000000  0.035814000000  1  1  1  mag  0.0
0.468613000000  0.744570000000  0.037356000000  1  1  1  mag  0.0
0.632635000000  0.507547000000  0.045143000000  1  1  1  mag  0.0
0.632208000000  0.120771000000  0.047676000000  1  1  1  mag  0.0
0.635556000000  0.354458000000  0.052626000000  1  1  1  mag  0.0
0.480792000000  0.507374000000  0.053671000000  1  1  1  mag  0.0
0.481602000000  0.352642000000  0.055477000000  1  1  1  mag  0.0
0.475704000000  0.120558000000  0.063612000000  1  1  1  mag  0.0
0.673523000000  0.625872000000  0.171147000000  1  1  1  mag  0.0
0.434373000000  0.625020000000  0.177059000000  1  1  1  mag  0.0
0.676169000000  0.854357000000  0.181211000000  1  1  1  mag  0.0
0.679625000000  0.238893000000  0.185497000000  1  1  1  mag  0.0
0.821919000000  0.810525000000  0.189056000000  1  1  1  mag  0.0
0.826381000000  0.051788000000  0.189929000000  1  1  1  mag  0.0
0.064784000000  0.209352000000  0.190486000000  1  1  1  mag  0.0
0.828201000000  0.208738000000  0.191175000000  1  1  1  mag  0.0
0.064692000000  0.049849000000  0.191596000000  1  1  1  mag  0.0
0.820398000000  0.653276000000  0.193167000000  1  1  1  mag  0.0
0.680034000000  0.008792000000  0.193531000000  1  1  1  mag  0.0
0.059749000000  0.810840000000  0.195123000000  1  1  1  mag  0.0
0.435391000000  0.850422000000  0.195665000000  1  1  1  mag  0.0
0.058649000000  0.651710000000  0.204186000000  1  1  1  mag  0.0
0.444387000000  0.242394000000  0.205424000000  1  1  1  mag  0.0
0.444954000000  0.002889000000  0.208415000000  1  1  1  mag  0.0
0.557799000000  0.653331000000  0.316155000000  1  1  1  mag  0.0
0.561584000000  0.811232000000  0.324238000000  1  1  1  mag  0.0
0.322352000000  0.651921000000  0.325690000000  1  1  1  mag  0.0
0.937922000000  0.854976000000  0.327412000000  1  1  1  mag  0.0
0.943736000000  0.009304000000  0.329511000000  1  1  1  mag  0.0
0.179452000000  0.009547000000  0.329344000000  1  1  1  mag  0.0
0.946137000000  0.238290000000  0.330417000000  1  1  1  mag  0.0
0.566396000000  0.202097000000  0.331084000000  1  1  1  mag  0.0
0.173936000000  0.853627000000  0.333614000000  1  1  1  mag  0.0
0.565920000000  0.045705000000  0.334863000000  1  1  1  mag  0.0
0.320425000000  0.808491000000  0.336821000000  1  1  1  mag  0.0
0.934841000000  0.620693000000  0.336676000000  1  1  1  mag  0.0
0.324552000000  0.209633000000  0.340687000000  1  1  1  mag  0.0
0.325501000000  0.051653000000  0.340446000000  1  1  1  mag  0.0
0.175248000000  0.237900000000  0.341961000000  1  1  1  mag  0.0
0.173932000000  0.625051000000  0.351390000000  1  1  1  mag  0.0
0.978137000000  0.351681000000  0.473241000000  1  1  1  mag  0.0
0.975654000000  0.506584000000  0.474407000000  1  1  1  mag  0.0
0.132784000000  0.354549000000  0.477463000000  1  1  1  mag  0.0
0.969551000000  0.742101000000  0.478105000000  1  1  1  mag  0.0
0.132632000000  0.116097000000  0.481434000000  1  1  1  mag  0.0
0.977722000000  0.119605000000  0.481871000000  1  1  1  mag  0.0
0.129266000000  0.507212000000  0.482934000000  1  1  1  mag  0.0
0.126488000000  0.747836000000  0.482489000000  1  1  1  mag  0.0
0.371022000000  0.612378000000  0.533670000000  1  1  1  mag  0.0
0.528227000000  0.622099000000  0.537627000000  1  1  1  mag  0.0
0.527427000000  0.855037000000  0.540013000000  1  1  1  mag  0.0
0.374115000000  0.852714000000  0.545211000000  1  1  1  mag  0.0
0.378347000000  0.242387000000  0.548883000000  1  1  1  mag  0.0
0.532962000000  0.235741000000  0.549513000000  1  1  1  mag  0.0
0.526076000000  0.010713000000  0.549787000000  1  1  1  mag  0.0
0.372991000000  0.006249000000  0.550722000000  1  1  1  mag  0.0
0.327937000000  0.731133000000  0.672185000000  1  1  1  mag  0.0
0.564845000000  0.742209000000  0.676901000000  1  1  1  mag  0.0
0.179992000000  0.307989000000  0.690269000000  1  1  1  mag  0.0
0.563273000000  0.509427000000  0.688561000000  1  1  1  mag  0.0
0.178237000000  0.709996000000  0.690098000000  1  1  1  mag  0.0
0.184780000000  0.150112000000  0.690218000000  1  1  1  mag  0.0
0.334344000000  0.122163000000  0.690502000000  1  1  1  mag  0.0
0.944240000000  0.311866000000  0.691090000000  1  1  1  mag  0.0
0.938918000000  0.548894000000  0.693113000000  1  1  1  mag  0.0
0.173226000000  0.553713000000  0.694960000000  1  1  1  mag  0.0
0.940973000000  0.708418000000  0.697536000000  1  1  1  mag  0.0
0.943005000000  0.152865000000  0.698835000000  1  1  1  mag  0.0
0.328918000000  0.347319000000  0.703317000000  1  1  1  mag  0.0
0.559860000000  0.117541000000  0.703154000000  1  1  1  mag  0.0
0.446502000000  0.708321000000  0.820357000000  1  1  1  mag  0.0
0.063731000000  0.355332000000  0.824953000000  1  1  1  mag  0.0
0.676570000000  0.707063000000  0.824672000000  1  1  1  mag  0.0
0.066759000000  0.116569000000  0.827511000000  1  1  1  mag  0.0
0.677135000000  0.548503000000  0.829704000000  1  1  1  mag  0.0
0.679431000000  0.152539000000  0.833160000000  1  1  1  mag  0.0
0.826858000000  0.508261000000  0.833851000000  1  1  1  mag  0.0
0.063559000000  0.738046000000  0.834597000000  1  1  1  mag  0.0
0.057721000000  0.509175000000  0.834953000000  1  1  1  mag  0.0
0.447977000000  0.552220000000  0.835370000000  1  1  1  mag  0.0
0.832493000000  0.352309000000  0.835673000000  1  1  1  mag  0.0
0.684397000000  0.310866000000  0.840205000000  1  1  1  mag  0.0
0.442173000000  0.308916000000  0.841731000000  1  1  1  mag  0.0
0.443849000000  0.149189000000  0.844894000000  1  1  1  mag  0.0
0.825531000000  0.736985000000  0.846790000000  1  1  1  mag  0.0
0.827460000000  0.125648000000  0.847783000000  1  1  1  mag  0.0
0.034159000000  0.237687000000  0.968949000000  1  1  1  mag  0.0
0.026845000000  0.006733000000  0.975025000000  1  1  1  mag  0.0
0.024332000000  0.850524000000  0.976512000000  1  1  1  mag  0.0
0.870588000000  0.854711000000  0.977429000000  1  1  1  mag  0.0
0.873349000000  0.006872000000  0.978992000000  1  1  1  mag  0.0
0.878563000000  0.244246000000  0.981265000000  1  1  1  mag  0.0
0.027866000000  0.620442000000  0.983303000000  1  1  1  mag  0.0
0.871395000000  0.617343000000  0.984386000000  1  1  1  mag  0.0

Pd
0.000
1
0.374571000000  0.433904000000  0.533915000000  1  1  1  mag  2.0

Au
0.000
1
0.500949000000  0.425456000000  0.515275000000  1  1  1  mag  0.0
