ATOMIC_SPECIES
H   1.008         H_ONCV_PBE-1.0.upf
C   12.011        C_ONCV_PBE-1.0.upf
O   15.999        O_ONCV_PBE-1.0.upf
Al  26.9815385    Al_ONCV_PBE-1.0.upf
Si  28.085        Si_ONCV_PBE-1.0.upf
Pd  106.42        Pd_ONCV_PBE-1.0.upf
Au  196.966569    Au_ONCV_PBE-1.0.upf

NUMERICAL_ORBITAL
H_gga_6au_100Ry_2s1p.orb
C_gga_7au_100Ry_2s2p1d.orb
O_gga_7au_100Ry_2s2p1d.orb
Al_gga_7au_100Ry_4s4p1d.orb
Si_gga_7au_100Ry_2s2p1d.orb
Pd_gga_7au_100Ry_4s2p2d1f.orb
Au_gga_7au_100Ry_4s2p2d1f.orb

LATTICE_CONSTANT
1.889726

LATTICE_VECTORS
20.531029000      0.0000000000      0.0000000000      
0.0000000000      20.303399000      0.0000000000      
0.0000000000      0.0000000000      13.629729000      

ATOMIC_POSITIONS
Direct

H
0.0000000000
6
0.6977460000 0.4791300000 0.3114020000 1 1 1 mag 0.0 
0.4330510000 0.4643810000 0.3681710000 1 1 1 mag 0.0 
0.6391910000 0.4527740000 0.4159690000 1 1 1 mag 0.0 
0.6682220000 0.5386640000 0.4037800000 1 1 1 mag 0.0 
0.7299730000 0.4767310000 0.4378930000 1 1 1 mag 0.0 
0.6160260000 0.3782640000 0.4659880000 1 1 1 mag 0.0 

C
0.0000000000
1
0.6905550000 0.4909310000 0.3886720000 1 1 1 mag 0.0 

O
0.0000000000
194
0.5622440000 0.3323270000 0.0431500000 1 1 1 mag 0.0 
0.5462110000 0.7487320000 0.0450150000 1 1 1 mag 0.0 
0.5523770000 0.1387820000 0.0509210000 1 1 1 mag 0.0 
0.5572350000 0.5338150000 0.0575890000 1 1 1 mag 0.0 
0.0715300000 0.2303900000 0.0736010000 1 1 1 mag 0.0 
0.0574250000 0.0329500000 0.0757610000 1 1 1 mag 0.0 
0.0575690000 0.8242580000 0.0769220000 1 1 1 mag 0.0 
0.6417840000 0.4338380000 0.0901030000 1 1 1 mag 0.0 
0.6549990000 0.8197240000 0.0709240000 1 1 1 mag 0.0 
0.4778140000 0.4298290000 0.0881670000 1 1 1 mag 0.0 
0.8382740000 0.8496450000 0.0905850000 1 1 1 mag 0.0 
0.4422420000 0.6733730000 0.0773600000 1 1 1 mag 0.0 
0.8432300000 0.0092570000 0.0913250000 1 1 1 mag 0.0 
0.0663500000 0.6328350000 0.0909430000 1 1 1 mag 0.0 
0.4335930000 0.8056710000 0.0928300000 1 1 1 mag 0.0 
0.8343560000 0.6096010000 0.0967310000 1 1 1 mag 0.0 
0.8540040000 0.2523880000 0.0967150000 1 1 1 mag 0.0 
0.6575430000 0.6882820000 0.0889410000 1 1 1 mag 0.0 
0.6693660000 0.1844570000 0.0974660000 1 1 1 mag 0.0 
0.6452150000 0.0533370000 0.1051540000 1 1 1 mag 0.0 
0.6799050000 0.5588850000 0.1046490000 1 1 1 mag 0.0 
0.4686230000 0.0475600000 0.1194170000 1 1 1 mag 0.0 
0.4426000000 0.1756500000 0.1416780000 1 1 1 mag 0.0 
0.4417350000 0.5490780000 0.1405590000 1 1 1 mag 0.0 
0.6714650000 0.3132040000 0.1460880000 1 1 1 mag 0.0 
0.4512490000 0.3088250000 0.1439840000 1 1 1 mag 0.0 
0.6844900000 0.9335340000 0.1546900000 1 1 1 mag 0.0 
0.8338970000 0.1309080000 0.1591890000 1 1 1 mag 0.0 
0.4427420000 0.9249870000 0.1680500000 1 1 1 mag 0.0 
0.8335360000 0.7307480000 0.1744280000 1 1 1 mag 0.0 
0.0675920000 0.1306190000 0.2073830000 1 1 1 mag 0.0 
0.0610620000 0.7334280000 0.2219600000 1 1 1 mag 0.0 
0.7430250000 0.8224320000 0.2183990000 1 1 1 mag 0.0 
0.7402220000 0.6424980000 0.2243290000 1 1 1 mag 0.0 
0.7563510000 0.2296560000 0.2254280000 1 1 1 mag 0.0 
0.7500240000 0.0385580000 0.2229720000 1 1 1 mag 0.0 
0.3596150000 0.6348750000 0.2189940000 1 1 1 mag 0.0 
0.1324490000 0.0172480000 0.2295800000 1 1 1 mag 0.0 
0.1235380000 0.8484320000 0.2390530000 1 1 1 mag 0.0 
0.9986110000 0.2400350000 0.2341930000 1 1 1 mag 0.0 
0.1297100000 0.2436560000 0.2451770000 1 1 1 mag 0.0 
0.3602230000 0.8378700000 0.2469390000 1 1 1 mag 0.0 
0.9916390000 0.8438660000 0.2418120000 1 1 1 mag 0.0 
0.0019510000 0.0214070000 0.2526100000 1 1 1 mag 0.0 
0.9873280000 0.6255030000 0.2453800000 1 1 1 mag 0.0 
0.6134150000 0.6199760000 0.2472950000 1 1 1 mag 0.0 
0.4852900000 0.6465350000 0.2603630000 1 1 1 mag 0.0 
0.3734830000 0.2465660000 0.2677860000 1 1 1 mag 0.0 
0.1171700000 0.6197470000 0.2704940000 1 1 1 mag 0.0 
0.3747590000 0.0216190000 0.2536240000 1 1 1 mag 0.0 
0.4881920000 0.8205730000 0.2710650000 1 1 1 mag 0.0 
0.6174910000 0.8429750000 0.2561890000 1 1 1 mag 0.0 
0.8645610000 0.8369730000 0.2825260000 1 1 1 mag 0.0 
0.8732570000 0.0343060000 0.2802710000 1 1 1 mag 0.0 
0.6333990000 0.2253150000 0.2801190000 1 1 1 mag 0.0 
0.8598600000 0.6255570000 0.2885350000 1 1 1 mag 0.0 
0.8754250000 0.2222540000 0.2878640000 1 1 1 mag 0.0 
0.5032090000 0.2392670000 0.2896240000 1 1 1 mag 0.0 
0.5007610000 0.0019710000 0.2994730000 1 1 1 mag 0.0 
0.6321120000 0.0126810000 0.2921590000 1 1 1 mag 0.0 
0.2504500000 0.0414720000 0.3007600000 1 1 1 mag 0.0 
0.2445930000 0.6351290000 0.3025050000 1 1 1 mag 0.0 
0.2491200000 0.2208650000 0.3092160000 1 1 1 mag 0.0 
0.2403040000 0.8172950000 0.3120650000 1 1 1 mag 0.0 
0.5568600000 0.1203570000 0.3037240000 1 1 1 mag 0.0 
0.5728800000 0.7309600000 0.3353210000 1 1 1 mag 0.0 
0.3419520000 0.1305380000 0.3510760000 1 1 1 mag 0.0 
0.3332720000 0.7290440000 0.3527820000 1 1 1 mag 0.0 
0.1853420000 0.9327020000 0.3586090000 1 1 1 mag 0.0 
0.9377550000 0.9330340000 0.3613650000 1 1 1 mag 0.0 
0.9480700000 0.3116490000 0.3797630000 1 1 1 mag 0.0 
0.9379740000 0.5479910000 0.3884640000 1 1 1 mag 0.0 
0.1753560000 0.3107280000 0.4006890000 1 1 1 mag 0.0 
0.4300380000 0.4254780000 0.4103550000 1 1 1 mag 0.0 
0.9709750000 0.1832280000 0.4077650000 1 1 1 mag 0.0 
0.1757830000 0.5588700000 0.4222830000 1 1 1 mag 0.0 
0.9438600000 0.6791450000 0.4134990000 1 1 1 mag 0.0 
0.1454650000 0.1827730000 0.4176070000 1 1 1 mag 0.0 
0.3514320000 0.6056820000 0.4103210000 1 1 1 mag 0.0 
0.1608220000 0.6910650000 0.4248470000 1 1 1 mag 0.0 
0.5533510000 0.6124830000 0.4190760000 1 1 1 mag 0.0 
0.1447330000 0.0497660000 0.4184610000 1 1 1 mag 0.0 
0.9512030000 0.8109870000 0.4250950000 1 1 1 mag 0.0 
0.9539660000 0.0532620000 0.4316930000 1 1 1 mag 0.0 
0.1351970000 0.8212980000 0.4305130000 1 1 1 mag 0.0 
0.5616280000 0.8465130000 0.4291910000 1 1 1 mag 0.0 
0.3357860000 0.8466240000 0.4397490000 1 1 1 mag 0.0 
0.5955950000 0.4183520000 0.4396110000 1 1 1 mag 0.0 
0.1399980000 0.4330980000 0.4472500000 1 1 1 mag 0.0 
0.3319860000 0.2414880000 0.4549140000 1 1 1 mag 0.0 
0.3354520000 0.0136100000 0.4422030000 1 1 1 mag 0.0 
0.5726020000 0.2096390000 0.4497770000 1 1 1 mag 0.0 
0.9729950000 0.4293860000 0.4513170000 1 1 1 mag 0.0 
0.5681290000 0.0375650000 0.4580740000 1 1 1 mag 0.0 
0.0539140000 0.5330330000 0.4726820000 1 1 1 mag 0.0 
0.0583080000 0.3306670000 0.4825770000 1 1 1 mag 0.0 
0.0473680000 0.7341330000 0.4962660000 1 1 1 mag 0.0 
0.0546050000 0.1166040000 0.5182890000 1 1 1 mag 0.0 
0.4562860000 0.2478380000 0.5141490000 1 1 1 mag 0.0 
0.4510770000 0.8312330000 0.5300440000 1 1 1 mag 0.0 
0.4483100000 0.0321030000 0.5353620000 1 1 1 mag 0.0 
0.4486520000 0.6168670000 0.5397980000 1 1 1 mag 0.0 
0.5318140000 0.9333190000 0.5690350000 1 1 1 mag 0.0 
0.9428030000 0.3284520000 0.5727920000 1 1 1 mag 0.0 
0.9450010000 0.5231330000 0.5810560000 1 1 1 mag 0.0 
0.3692810000 0.9291820000 0.5833070000 1 1 1 mag 0.0 
0.3448480000 0.5409170000 0.5790070000 1 1 1 mag 0.0 
0.1785240000 0.1150870000 0.5782570000 1 1 1 mag 0.0 
0.1662720000 0.3470850000 0.5897190000 1 1 1 mag 0.0 
0.9339730000 0.1351850000 0.5832520000 1 1 1 mag 0.0 
0.9315670000 0.7382650000 0.5860410000 1 1 1 mag 0.0 
0.5539280000 0.6884430000 0.5785260000 1 1 1 mag 0.0 
0.3342560000 0.6741430000 0.5778570000 1 1 1 mag 0.0 
0.5669630000 0.3019640000 0.5888940000 1 1 1 mag 0.0 
0.1581850000 0.7562820000 0.5950560000 1 1 1 mag 0.0 
0.5577440000 0.5565540000 0.5945500000 1 1 1 mag 0.0 
0.1490450000 0.5101140000 0.6036800000 1 1 1 mag 0.0 
0.3624710000 0.3143680000 0.6063380000 1 1 1 mag 0.0 
0.3678680000 0.1820180000 0.6230560000 1 1 1 mag 0.0 
0.3411740000 0.8028940000 0.6258530000 1 1 1 mag 0.0 
0.5669180000 0.8143940000 0.6206230000 1 1 1 mag 0.0 
0.5315160000 0.1768840000 0.6307450000 1 1 1 mag 0.0 
0.3364240000 0.0529780000 0.6306910000 1 1 1 mag 0.0 
0.5580390000 0.4311010000 0.6447570000 1 1 1 mag 0.0 
0.5535910000 0.0480100000 0.6520730000 1 1 1 mag 0.0 
0.1633020000 0.6335010000 0.6624930000 1 1 1 mag 0.0 
0.3264680000 0.4268170000 0.6723340000 1 1 1 mag 0.0 
0.1652000000 0.2284110000 0.6760330000 1 1 1 mag 0.0 
0.9419870000 0.6283780000 0.6986630000 1 1 1 mag 0.0 
0.9494440000 0.2350030000 0.7139690000 1 1 1 mag 0.0 
0.2556540000 0.7229860000 0.7155290000 1 1 1 mag 0.0 
0.2558710000 0.3177460000 0.7238660000 1 1 1 mag 0.0 
0.2455000000 0.5396530000 0.7311820000 1 1 1 mag 0.0 
0.2612900000 0.1422750000 0.7217020000 1 1 1 mag 0.0 
0.6369820000 0.7253410000 0.7187980000 1 1 1 mag 0.0 
0.8681330000 0.5218650000 0.7351980000 1 1 1 mag 0.0 
0.6398600000 0.5172740000 0.7333060000 1 1 1 mag 0.0 
0.8784240000 0.3454430000 0.7368290000 1 1 1 mag 0.0 
0.0097290000 0.3500840000 0.7375990000 1 1 1 mag 0.0 
0.6318360000 0.1334890000 0.7414290000 1 1 1 mag 0.0 
0.0078500000 0.1192340000 0.7421820000 1 1 1 mag 0.0 
0.0093020000 0.7361340000 0.7416440000 1 1 1 mag 0.0 
0.5087020000 0.7361440000 0.7513470000 1 1 1 mag 0.0 
0.8780530000 0.1290990000 0.7597160000 1 1 1 mag 0.0 
0.8780220000 0.7345860000 0.7623000000 1 1 1 mag 0.0 
0.9964320000 0.5166580000 0.7616620000 1 1 1 mag 0.0 
0.6385990000 0.3467530000 0.7655000000 1 1 1 mag 0.0 
0.3811100000 0.7103420000 0.7546850000 1 1 1 mag 0.0 
0.5124580000 0.5184480000 0.7754630000 1 1 1 mag 0.0 
0.1377980000 0.1139560000 0.7658880000 1 1 1 mag 0.0 
0.1351880000 0.3361320000 0.7813440000 1 1 1 mag 0.0 
0.4987430000 0.3329990000 0.7689590000 1 1 1 mag 0.0 
0.1365760000 0.7333160000 0.7867370000 1 1 1 mag 0.0 
0.1225140000 0.5419830000 0.7901480000 1 1 1 mag 0.0 
0.3788960000 0.1166550000 0.7914510000 1 1 1 mag 0.0 
0.3823230000 0.5368250000 0.7826990000 1 1 1 mag 0.0 
0.5097180000 0.1192790000 0.8039330000 1 1 1 mag 0.0 
0.3702160000 0.3345310000 0.8036390000 1 1 1 mag 0.0 
0.7513290000 0.7214900000 0.8040740000 1 1 1 mag 0.0 
0.7520920000 0.1358320000 0.8029900000 1 1 1 mag 0.0 
0.7548150000 0.5361230000 0.8178540000 1 1 1 mag 0.0 
0.7626390000 0.3199010000 0.8126210000 1 1 1 mag 0.0 
0.6617950000 0.6257320000 0.8433330000 1 1 1 mag 0.0 
0.4403760000 0.2276450000 0.8475440000 1 1 1 mag 0.0 
0.4661840000 0.6298450000 0.8465780000 1 1 1 mag 0.0 
0.6690180000 0.2334140000 0.8580580000 1 1 1 mag 0.0 
0.8271360000 0.4301390000 0.8659640000 1 1 1 mag 0.0 
0.0663660000 0.4321980000 0.8663760000 1 1 1 mag 0.0 
0.0611430000 0.0455310000 0.8829150000 1 1 1 mag 0.0 
0.0569530000 0.8115600000 0.8846100000 1 1 1 mag 0.0 
0.8249700000 0.8069840000 0.9049470000 1 1 1 mag 0.0 
0.0657300000 0.1790430000 0.8954370000 1 1 1 mag 0.0 
0.8279500000 0.0547820000 0.9053090000 1 1 1 mag 0.0 
0.0497870000 0.6796710000 0.9092130000 1 1 1 mag 0.0 
0.0460140000 0.3085970000 0.9196090000 1 1 1 mag 0.0 
0.6433500000 0.7459510000 0.9125880000 1 1 1 mag 0.0 
0.8372210000 0.1857360000 0.9293040000 1 1 1 mag 0.0 
0.4436410000 0.7497900000 0.9182070000 1 1 1 mag 0.0 
0.8384890000 0.6772770000 0.9308770000 1 1 1 mag 0.0 
0.8627550000 0.5471360000 0.9297610000 1 1 1 mag 0.0 
0.6505410000 0.5065770000 0.9273300000 1 1 1 mag 0.0 
0.8704030000 0.3144160000 0.9275870000 1 1 1 mag 0.0 
0.6559950000 0.1137340000 0.9340780000 1 1 1 mag 0.0 
0.0416850000 0.5495200000 0.9421240000 1 1 1 mag 0.0 
0.8621750000 0.9302000000 0.9398350000 1 1 1 mag 0.0 
0.4500780000 0.5176080000 0.9468770000 1 1 1 mag 0.0 
0.6789510000 0.3461420000 0.9551230000 1 1 1 mag 0.0 
0.4477130000 0.3383680000 0.9531990000 1 1 1 mag 0.0 
0.0307050000 0.9288010000 0.9610080000 1 1 1 mag 0.0 
0.4364480000 0.1208670000 0.9644060000 1 1 1 mag 0.0 
0.9565200000 0.2214120000 0.9817490000 1 1 1 mag 0.0 
0.9464620000 0.0302120000 0.9743280000 1 1 1 mag 0.0 
0.9440520000 0.8295420000 0.9798840000 1 1 1 mag 0.0 
0.9487410000 0.6312270000 0.0088370000 1 1 1 mag 0.0 

Al
0.0000000000
2
0.5671650000 0.3482540000 0.6982140000 1 1 1 mag 0.0 
0.3227170000 0.5143280000 0.7008050000 1 1 1 mag 0.0 

Si
0.0000000000
94
0.6251060000 0.7502330000 0.0290540000 1 1 1 mag 0.0 
0.4667950000 0.7444910000 0.0329890000 1 1 1 mag 0.0 
0.6324910000 0.5078810000 0.0443830000 1 1 1 mag 0.0 
0.6305120000 0.1223970000 0.0470800000 1 1 1 mag 0.0 
0.6384390000 0.3558760000 0.0569020000 1 1 1 mag 0.0 
0.4813720000 0.5073720000 0.0558020000 1 1 1 mag 0.0 
0.4849950000 0.3521470000 0.0564150000 1 1 1 mag 0.0 
0.4754660000 0.1205580000 0.0691670000 1 1 1 mag 0.0 
0.6718570000 0.6281050000 0.1659180000 1 1 1 mag 0.0 
0.4330800000 0.6263160000 0.1738670000 1 1 1 mag 0.0 
0.6752480000 0.8547010000 0.1754550000 1 1 1 mag 0.0 
0.6814950000 0.2377670000 0.1861930000 1 1 1 mag 0.0 
0.8199890000 0.8097330000 0.1913300000 1 1 1 mag 0.0 
0.8251980000 0.0531040000 0.1886330000 1 1 1 mag 0.0 
0.0668830000 0.2105540000 0.1896850000 1 1 1 mag 0.0 
0.8298610000 0.2087700000 0.1915190000 1 1 1 mag 0.0 
0.0643510000 0.0507400000 0.1917010000 1 1 1 mag 0.0 
0.8173560000 0.6526530000 0.1955350000 1 1 1 mag 0.0 
0.6779800000 0.0096830000 0.1933980000 1 1 1 mag 0.0 
0.0583710000 0.8121820000 0.1952660000 1 1 1 mag 0.0 
0.4318070000 0.8473730000 0.1955380000 1 1 1 mag 0.0 
0.0579910000 0.6531640000 0.2066880000 1 1 1 mag 0.0 
0.4433920000 0.2421020000 0.2098250000 1 1 1 mag 0.0 
0.4462830000 0.0003110000 0.2105650000 1 1 1 mag 0.0 
0.5561300000 0.6534190000 0.3146290000 1 1 1 mag 0.0 
0.5596860000 0.8103160000 0.3221750000 1 1 1 mag 0.0 
0.3215370000 0.6518480000 0.3215770000 1 1 1 mag 0.0 
0.9364700000 0.8556980000 0.3274290000 1 1 1 mag 0.0 
0.9419990000 0.0109130000 0.3307380000 1 1 1 mag 0.0 
0.1787200000 0.0102200000 0.3270190000 1 1 1 mag 0.0 
0.9485200000 0.2388550000 0.3279120000 1 1 1 mag 0.0 
0.5663190000 0.1986980000 0.3313910000 1 1 1 mag 0.0 
0.1712830000 0.8549460000 0.3352100000 1 1 1 mag 0.0 
0.5648160000 0.0432140000 0.3383090000 1 1 1 mag 0.0 
0.3175930000 0.8076420000 0.3380240000 1 1 1 mag 0.0 
0.9334620000 0.6199080000 0.3340500000 1 1 1 mag 0.0 
0.3245020000 0.2093930000 0.3445680000 1 1 1 mag 0.0 
0.3259170000 0.0518490000 0.3371970000 1 1 1 mag 0.0 
0.1748650000 0.2391840000 0.3439980000 1 1 1 mag 0.0 
0.1733720000 0.6264340000 0.3554900000 1 1 1 mag 0.0 
0.9808640000 0.3506020000 0.4724560000 1 1 1 mag 0.0 
0.9777210000 0.5082370000 0.4741660000 1 1 1 mag 0.0 
0.1345080000 0.3554230000 0.4800340000 1 1 1 mag 0.0 
0.9687520000 0.7413130000 0.4795630000 1 1 1 mag 0.0 
0.1306770000 0.1164310000 0.4820980000 1 1 1 mag 0.0 
0.9779500000 0.1216710000 0.4845120000 1 1 1 mag 0.0 
0.1298610000 0.5090250000 0.4872330000 1 1 1 mag 0.0 
0.1250710000 0.7503050000 0.4862380000 1 1 1 mag 0.0 
0.3694450000 0.6096730000 0.5278430000 1 1 1 mag 0.0 
0.5279480000 0.6190400000 0.5331800000 1 1 1 mag 0.0 
0.5273790000 0.8562140000 0.5368230000 1 1 1 mag 0.0 
0.3741970000 0.8524190000 0.5448560000 1 1 1 mag 0.0 
0.3805980000 0.2443110000 0.5499910000 1 1 1 mag 0.0 
0.5331050000 0.2354050000 0.5478160000 1 1 1 mag 0.0 
0.5253610000 0.0126680000 0.5531060000 1 1 1 mag 0.0 
0.3726170000 0.0067580000 0.5482920000 1 1 1 mag 0.0 
0.3287260000 0.7281060000 0.6682000000 1 1 1 mag 0.0 
0.5661340000 0.7405670000 0.6687210000 1 1 1 mag 0.0 
0.1796830000 0.3071060000 0.6920280000 1 1 1 mag 0.0 
0.5662000000 0.5073480000 0.6893430000 1 1 1 mag 0.0 
0.1784570000 0.7106780000 0.6900940000 1 1 1 mag 0.0 
0.1854640000 0.1501930000 0.6863460000 1 1 1 mag 0.0 
0.3360770000 0.1231240000 0.6908330000 1 1 1 mag 0.0 
0.9451010000 0.3142110000 0.6908000000 1 1 1 mag 0.0 
0.9385290000 0.5480360000 0.6942880000 1 1 1 mag 0.0 
0.1721630000 0.5560340000 0.6978550000 1 1 1 mag 0.0 
0.9401290000 0.7089490000 0.6974350000 1 1 1 mag 0.0 
0.9421610000 0.1549140000 0.6996160000 1 1 1 mag 0.0 
0.3282410000 0.3478600000 0.7052070000 1 1 1 mag 0.0 
0.5567990000 0.1200680000 0.7067050000 1 1 1 mag 0.0 
0.4490080000 0.7059160000 0.8170660000 1 1 1 mag 0.0 
0.0637900000 0.3562560000 0.8262410000 1 1 1 mag 0.0 
0.6741320000 0.7043010000 0.8204420000 1 1 1 mag 0.0 
0.0673140000 0.1150150000 0.8222190000 1 1 1 mag 0.0 
0.6768380000 0.5467820000 0.8309710000 1 1 1 mag 0.0 
0.6773710000 0.1549480000 0.8349640000 1 1 1 mag 0.0 
0.8282810000 0.5082520000 0.8376010000 1 1 1 mag 0.0 
0.0627780000 0.7395080000 0.8310920000 1 1 1 mag 0.0 
0.0571830000 0.5103540000 0.8391470000 1 1 1 mag 0.0 
0.4503160000 0.5504720000 0.8365770000 1 1 1 mag 0.0 
0.8336630000 0.3522360000 0.8361950000 1 1 1 mag 0.0 
0.6854930000 0.3124800000 0.8451570000 1 1 1 mag 0.0 
0.4424190000 0.3084680000 0.8417110000 1 1 1 mag 0.0 
0.4414990000 0.1474480000 0.8509980000 1 1 1 mag 0.0 
0.8238290000 0.7349450000 0.8502000000 1 1 1 mag 0.0 
0.8249470000 0.1265160000 0.8494080000 1 1 1 mag 0.0 
0.0346310000 0.2353790000 0.9672760000 1 1 1 mag 0.0 
0.0236430000 0.0085710000 0.9735300000 1 1 1 mag 0.0 
0.0218070000 0.8494280000 0.9761730000 1 1 1 mag 0.0 
0.8675550000 0.8539120000 0.9788940000 1 1 1 mag 0.0 
0.8698800000 0.0065760000 0.9777980000 1 1 1 mag 0.0 
0.8796560000 0.2435790000 0.9833690000 1 1 1 mag 0.0 
0.0268890000 0.6229500000 0.9870550000 1 1 1 mag 0.0 
0.8714860000 0.6160620000 0.9907230000 1 1 1 mag 0.0 

Pd
0.0000000000
1
0.3729700000 0.4329850000 0.5334370000 1 1 1 mag 2.0 

Au
0.0000000000
1
0.5012520000 0.4268380000 0.5146480000 1 1 1 mag 0.0 

