INPUT_PARAMETERS
# Created by Atomic Simulation Enviroment
calculation                             scf
ecutwfc                                 100
smearing_method                         gaussian
smearing_sigma                          0.001
basis_type                              lcao
ks_solver                               genelpa
mixing_type                             broyden
scf_thr                                 1e-06
scf_nmax                                300
out_chg                                 0
out_bandgap                             0
cal_force                               1
cal_stress                              1
out_stru                                1
ntype                                   2
dft_functional                          pbe
pseudo_dir   ..
orbital_dir  ..