ATOMIC_SPECIES
Li  6.94          Li_ONCV_PBE-1.2.upf
Si  28.085        Si_ONCV_PBE-1.2.upf

NUMERICAL_ORBITAL
Li_gga_8au_100Ry_4s1p.orb
Si_gga_8au_100Ry_2s2p1d.orb

LATTICE_CONSTANT
1.8897261258369282 

LATTICE_VECTORS
10.862000000      0.0000000000      0.0000000000      
0.0000000000      10.862000000      0.0000000000      
0.0000000000      0.0000000000      10.862000000      

ATOMIC_POSITIONS
Direct

Li
0.0000000000
1
0.5024480000 0.5024480000 0.5024470000 1 1 1 v 0.0 0.0 0.0 mag 0.0 

Si
0.0000000000
64
0.1267340000 0.3782350000 0.1267340000 1 1 1 v 0.0 0.0 0.0 mag 0.0 
0.1275240000 0.3770280000 0.6281710000 1 1 1 v 0.0 0.0 0.0 mag 0.0 
0.1275280000 0.8776660000 0.1275280000 1 1 1 v 0.0 0.0 0.0 mag 0.0 
0.1267370000 0.8784720000 0.6269610000 1 1 1 v 0.0 0.0 0.0 mag 0.0 
0.6281710000 0.3770280000 0.1275240000 1 1 1 v 0.0 0.0 0.0 mag 0.0 
0.6321850000 0.3730560000 0.6321850000 1 1 1 v 0.0 0.0 0.0 mag 0.0 
0.6269610000 0.8784720000 0.1267370000 1 1 1 v 0.0 0.0 0.0 mag 0.0 
0.6281830000 0.8776930000 0.6281830000 1 1 1 v 0.0 0.0 0.0 mag 0.0 
0.0026060000 0.0026060000 0.2522770000 1 1 1 v 0.0 0.0 0.0 mag 0.0 
0.0026030000 0.0026030000 0.7529060000 1 1 1 v 0.0 0.0 0.0 mag 0.0 
0.0026070000 0.5025990000 0.2528690000 1 1 1 v 0.0 0.0 0.0 mag 0.0 
0.0026070000 0.5025990000 0.7523330000 1 1 1 v 0.0 0.0 0.0 mag 0.0 
0.5025990000 0.0026070000 0.2528690000 1 1 1 v 0.0 0.0 0.0 mag 0.0 
0.5025990000 0.0026070000 0.7523330000 1 1 1 v 0.0 0.0 0.0 mag 0.0 
0.5026170000 0.5026170000 0.2510670000 1 1 1 v 0.0 0.0 0.0 mag 0.0 
0.5026070000 0.5026070000 0.7541590000 1 1 1 v 0.0 0.0 0.0 mag 0.0 
0.1267340000 0.1267340000 0.3782350000 1 1 1 v 0.0 0.0 0.0 mag 0.0 
0.1275280000 0.1275280000 0.8776660000 1 1 1 v 0.0 0.0 0.0 mag 0.0 
0.1275240000 0.6281710000 0.3770280000 1 1 1 v 0.0 0.0 0.0 mag 0.0 
0.1267370000 0.6269610000 0.8784720000 1 1 1 v 0.0 0.0 0.0 mag 0.0 
0.6281710000 0.1275240000 0.3770280000 1 1 1 v 0.0 0.0 0.0 mag 0.0 
0.6269610000 0.1267370000 0.8784720000 1 1 1 v 0.0 0.0 0.0 mag 0.0 
0.6321850000 0.6321850000 0.3730560000 1 1 1 v 0.0 0.0 0.0 mag 0.0 
0.6281830000 0.6281830000 0.8776930000 1 1 1 v 0.0 0.0 0.0 mag 0.0 
0.0026060000 0.2522770000 0.0026060000 1 1 1 v 0.0 0.0 0.0 mag 0.0 
0.0026070000 0.2528690000 0.5025990000 1 1 1 v 0.0 0.0 0.0 mag 0.0 
0.0026030000 0.7529060000 0.0026030000 1 1 1 v 0.0 0.0 0.0 mag 0.0 
0.0026070000 0.7523330000 0.5025990000 1 1 1 v 0.0 0.0 0.0 mag 0.0 
0.5025990000 0.2528690000 0.0026070000 1 1 1 v 0.0 0.0 0.0 mag 0.0 
0.5026170000 0.2510670000 0.5026170000 1 1 1 v 0.0 0.0 0.0 mag 0.0 
0.5025990000 0.7523330000 0.0026070000 1 1 1 v 0.0 0.0 0.0 mag 0.0 
0.5026070000 0.7541590000 0.5026070000 1 1 1 v 0.0 0.0 0.0 mag 0.0 
0.3730180000 0.3730180000 0.3730180000 1 1 1 v 0.0 0.0 0.0 mag 0.0 
0.3770300000 0.3770300000 0.8776940000 1 1 1 v 0.0 0.0 0.0 mag 0.0 
0.3770300000 0.8776940000 0.3770300000 1 1 1 v 0.0 0.0 0.0 mag 0.0 
0.3782440000 0.8784790000 0.8784790000 1 1 1 v 0.0 0.0 0.0 mag 0.0 
0.8776940000 0.3770300000 0.3770300000 1 1 1 v 0.0 0.0 0.0 mag 0.0 
0.8784790000 0.3782440000 0.8784780000 1 1 1 v 0.0 0.0 0.0 mag 0.0 
0.8784790000 0.8784790000 0.3782440000 1 1 1 v 0.0 0.0 0.0 mag 0.0 
0.8776860000 0.8776860000 0.8776860000 1 1 1 v 0.0 0.0 0.0 mag 0.0 
0.2522770000 0.0026060000 0.0026060000 1 1 1 v 0.0 0.0 0.0 mag 0.0 
0.2528690000 0.0026070000 0.5026000000 1 1 1 v 0.0 0.0 0.0 mag 0.0 
0.2528690000 0.5025990000 0.0026070000 1 1 1 v 0.0 0.0 0.0 mag 0.0 
0.2510670000 0.5026170000 0.5026170000 1 1 1 v 0.0 0.0 0.0 mag 0.0 
0.7529060000 0.0026030000 0.0026030000 1 1 1 v 0.0 0.0 0.0 mag 0.0 
0.7523330000 0.0026070000 0.5025990000 1 1 1 v 0.0 0.0 0.0 mag 0.0 
0.7523330000 0.5025990000 0.0026070000 1 1 1 v 0.0 0.0 0.0 mag 0.0 
0.7541590000 0.5026070000 0.5026070000 1 1 1 v 0.0 0.0 0.0 mag 0.0 
0.3782350000 0.1267340000 0.1267340000 1 1 1 v 0.0 0.0 0.0 mag 0.0 
0.3770280000 0.1275240000 0.6281710000 1 1 1 v 0.0 0.0 0.0 mag 0.0 
0.3770280000 0.6281710000 0.1275240000 1 1 1 v 0.0 0.0 0.0 mag 0.0 
0.3730560000 0.6321850000 0.6321850000 1 1 1 v 0.0 0.0 0.0 mag 0.0 
0.8776660000 0.1275280000 0.1275280000 1 1 1 v 0.0 0.0 0.0 mag 0.0 
0.8784720000 0.1267370000 0.6269610000 1 1 1 v 0.0 0.0 0.0 mag 0.0 
0.8784720000 0.6269610000 0.1267370000 1 1 1 v 0.0 0.0 0.0 mag 0.0 
0.8776930000 0.6281830000 0.6281830000 1 1 1 v 0.0 0.0 0.0 mag 0.0 
0.2490490000 0.2490490000 0.2490490000 1 1 1 v 0.0 0.0 0.0 mag 0.0 
0.2523750000 0.2523750000 0.7528370000 1 1 1 v 0.0 0.0 0.0 mag 0.0 
0.2523750000 0.7528370000 0.2523750000 1 1 1 v 0.0 0.0 0.0 mag 0.0 
0.2490510000 0.7561650000 0.7561650000 1 1 1 v 0.0 0.0 0.0 mag 0.0 
0.7528370000 0.2523750000 0.2523750000 1 1 1 v 0.0 0.0 0.0 mag 0.0 
0.7561650000 0.2490510000 0.7561650000 1 1 1 v 0.0 0.0 0.0 mag 0.0 
0.7561650000 0.7561650000 0.2490510000 1 1 1 v 0.0 0.0 0.0 mag 0.0 
0.7528480000 0.7528480000 0.7528480000 1 1 1 v 0.0 0.0 0.0 mag 0.0 

