C    Fe   H    O 
   1.00000000000000     
   9.9798002242999999   0.0000000000000000   0.0000000000000000
  -0.7640029178000000  12.6617713744000007   0.0000000000000000
   0.0000000000000000   0.0000000000000000  24.6403999328999994
C    Fe   H    O 
38  80  1  1  
Selective dynamics
Direct
  0.4847659630455854  0.7346430703680153  0.3175371145978128 T T T
  0.2505565623377602  0.3365530703057643  0.2932331283793130 T T T
  0.4154319422903401  0.9378329228161678  0.2898797973397617 T T T
  0.0111465692598939  0.5328757012778339  0.2582432997024020 T T T
  0.1795476759219498  0.1248552419445536  0.2520469539691523 T T T
  0.2744626465884151  0.6589152589565951  0.2324357751207345 T T T
  0.4416876279299947  0.2485174002265889  0.2153312328502874 T T T
  0.0334698971885068  0.8537814171560681  0.1735833810552751 T T T
  0.2094399700567292  0.4521068697002062  0.1630417386874956 T T T
  0.2932922286429173  0.9749494152237358  0.1472280423616002 T T T
  0.4685400127946266  0.5689799785491232  0.1363965421889333 F F F
  0.0618849992594050  0.1761599927881861  0.0950439572156867 F F F
  0.2337199896574802  0.7683600186992834  0.0814537331563443 F F F
  0.3233349919776458  0.2983900010735283  0.0596694983443413 F F F
  0.4914749860564243  0.8917099833146409  0.0522725917398859 F F F
  0.0908050015913417  0.4841400086716163  0.0186596699019503 F F F
  0.2536650002469187  0.0891999975045792  0.0165792908439997 F F F
  0.0294449906413732  0.6901699900906735  0.0075403899086837 F F F
  0.9746751759463684  0.7341670406677472  0.3035693565501704 T T T
  0.7508392685323615  0.3335793363104793  0.2931903023761449 T T T
  0.9104814133981376  0.9410077550473088  0.2928318372166187 T T T
  0.5122882315655678  0.5367260979264596  0.2561748325486997 T T T
  0.6796144278556835  0.1253222288130230  0.2502205708072627 T T T
  0.7689388103362531  0.6544859599366548  0.2294071121573674 T T T
  0.9422140092846030  0.2493632519401204  0.2151832440765910 T T T
  0.5354406439467246  0.8570527186071873  0.1751991811641284 T T T
  0.7094335719992777  0.4510866503348819  0.1630035880082836 T T T
  0.7950862569874887  0.9745511032815152  0.1477265630910960 T T T
  0.9685400128797994  0.5689799785491232  0.1363965421889333 F F F
  0.5618849992443700  0.1761599927881861  0.0950439572156867 F F F
  0.7337200045726107  0.7683600186992834  0.0814537331563443 F F F
  0.8233349919626107  0.2983900010735283  0.0596694983443413 F F F
  0.9914749860413964  0.8917099833146409  0.0522725917398859 F F F
  0.5908049940611306  0.4841400086716163  0.0186596699019503 F F F
  0.7536649703715668  0.0891999975045792  0.0165792908439997 F F F
  0.5294449925301876  0.6901699900906735  0.0075403899086837 F F F
  0.6106361123305772  0.7697988881425588  0.3380952419048917 T T T
  0.7328433191881225  0.5764883687721697  0.3410024297829398 T T T
  0.3768435739834820  0.6127378311429769  0.2925633009961551 T T T
  0.3183108753747221  0.8015444974078988  0.2847000756967182 T T T
  0.2526700740115485  0.0025602164071248  0.2855334041428753 T T T
  0.4232344720519134  0.4064977274505521  0.2817011244257954 T T T
  0.0620175881250960  0.8608188143089711  0.2806845147300331 T T T
  0.3357346298648775  0.2114604117268886  0.2803719932749812 T T T
  0.1211437458560872  0.6604131911496484  0.2810910094890468 T T T
  0.1797790764042883  0.4653714726639316  0.2743272186365239 T T T
  0.0915388253277691  0.2603200168725386  0.2716310336027918 T T T
  0.0019073221110258  0.0669810755541149  0.2713424533205175 T T T
  0.3945840432711668  0.9298749331650780  0.2091568208332390 T T T
  0.4465179243131044  0.7261498282820075  0.2010894321114283 T T T
  0.2790625262375637  0.3343338403251734  0.2047827952027226 T T T
  0.3611271494734075  0.5349453594711814  0.2012009952754819 T T T
  0.1423923058461506  0.9817064903393474  0.1988517203115043 T T T
  0.3304412911562908  0.1177644914257105  0.1963972267378865 T T T
  0.2009651037341931  0.7804655242118137  0.1937924969128788 T T T
  0.1180599118659017  0.5791729688155397  0.1915927908465837 T T T
  0.0336451942497870  0.3848465919736477  0.1908210113988035 T T T
  0.0894087682315413  0.1738378426446967  0.1835515458837425 T T T
  0.4136900008068167  0.2502999902057681  0.1271424144304163 F F F
  0.4704949855754847  0.0404199995298242  0.1188129335551480 F F F
  0.3857499957397792  0.8492599725612706  0.1185578629387223 F F F
  0.3033199906596167  0.6449099778811132  0.1173064410833931 F F F
  0.1709650010212442  0.3072200119538451  0.1140384078039318 F F F
  0.3591200113090878  0.4420500099469891  0.1119739711414383 F F F
  0.1420149952083918  0.8923400044044314  0.1095428690423148 F F F
  0.0567499995726877  0.6983600259026943  0.1071675718004172 F F F
  0.2246650009896243  0.0911900028723025  0.1049038618707101 F F F
  0.1082149967159012  0.4960300028555551  0.1003684699410172 F F F
  0.0009649999817967  0.3574799895022167  0.0397902913373969 F F F
  0.4128350019555498  0.1645900011441910  0.0385468490603458 F F F
  0.3247349858650637  0.9604699611452504  0.0357889495869159 F F F
  0.4378649890878918  0.5640299916044285  0.0316202081590262 F F F
  0.3832349777378141  0.7627800106647911  0.0303369108470477 F F F
  0.1678700000017486  0.2140299976099058  0.0297789499358032 F F F
  0.0811100005662482  0.0194600000832565  0.0270927902476359 F F F
  0.1895550041961158  0.6185399890282852  0.0245501007957358 F F F
  0.2521499991215705  0.4194400012416608  0.0245022792505054 F F F
  0.1318049877660243  0.8125699758567606  0.0205567199550103 F F F
  0.8734749076107732  0.6129488475314872  0.2905999676894002 T T T
  0.8059403820874308  0.8070010264791880  0.2932267400585641 T T T
  0.7489650795130144  0.0055811467095553  0.2864411171929118 T T T
  0.9248228950941628  0.4022463592199530  0.2817634016253984 T T T
  0.5675875413023931  0.8596242479278469  0.2738036284267757 T T T
  0.8360440340301886  0.2093779777058956  0.2800980707973934 T T T
  0.6294643417884718  0.6517120803510523  0.2856602818039998 T T T
  0.6758332171694478  0.4616369848478134  0.2762654518158801 T T T
  0.5908707872934333  0.2592201941114854  0.2715970998153436 T T T
  0.5014235308531937  0.0670767475232456  0.2700078961478738 T T T
  0.8939385103776735  0.9265536181879191  0.2110838496193620 T T T
  0.9450910168082320  0.7287375373838941  0.2066917113275317 T T T
  0.7784367189280373  0.3338272820189638  0.2050522173173328 T T T
  0.8632253683334679  0.5330508015182476  0.2005819654997681 T T T
  0.6450627514939660  0.9846369537680922  0.1977452352820019 T T T
  0.8337796718851516  0.1168742137124052  0.1961900610000226 T T T
  0.7001419246394548  0.7790298837687766  0.1938375484918094 T T T
  0.6181559696976383  0.5761755235180274  0.1915887562908807 T T T
  0.5334981880218841  0.3839666149462393  0.1911396624472472 T T T
  0.5889829165514305  0.1743268232380795  0.1829215649351992 T T T
  0.9136899709314648  0.2502999902057681  0.1271424144304163 F F F
  0.9704949855604568  0.0404199995298242  0.1188129335551480 F F F
  0.8857499957247441  0.8492599725612706  0.1185578629387223 F F F
  0.8033199906445816  0.6449099778811132  0.1173064410833931 F F F
  0.6709650159363747  0.3072200119538451  0.1140384078039318 F F F
  0.8591200112940527  0.4420500099469891  0.1119739711414383 F F F
  0.6420149803634061  0.8923400044044314  0.1095428690423148 F F F
  0.5567499995576597  0.6983600259026943  0.1071675718004172 F F F
  0.7246649861446386  0.0911900028723025  0.1049038618707101 F F F
  0.6082149744559402  0.4960300028555551  0.1003684699410172 F F F
  0.5009649991651486  0.3574799895022167  0.0397902913373969 F F F
  0.9128350019405148  0.1645900011441910  0.0385468490603458 F F F
  0.8247349858500357  0.9604699611452504  0.0357889495869159 F F F
  0.9378650188329800  0.5640299916044285  0.0316202081590262 F F F
  0.8832349777227790  0.7627800106647911  0.0303369108470477 F F F
  0.6678699850565621  0.2140299976099058  0.0297789499358032 F F F
  0.5811100006514209  0.0194600000832565  0.0270927902476359 F F F
  0.6895549893511301  0.6185399890282852  0.0245501007957358 F F F
  0.7521499991065355  0.4194400012416608  0.0245022792505054 F F F
  0.6318050026811548  0.8125699758567606  0.0205567199550103 F F F
  0.6403039830258793  0.7792404097382187  0.3806372207600292 T T T
  0.7170273882390393  0.5558545395880566  0.3881260737575821 T T T
