ATOMIC_SPECIES
C   12.011  C_ONCV_PBE-1.0.upf
Fe   55.845  Fe_ONCV_PBE-1.0.upf
H    1.008  H_ONCV_PBE-1.0.upf
O   15.999  O_ONCV_PBE-1.0.upf

NUMERICAL_ORBITAL
C_gga_7au_100Ry_2s2p1d.orb
Fe_gga_8au_100Ry_4s2p2d1f.orb
H_gga_6au_100Ry_2s1p.orb
O_gga_7au_100Ry_2s2p1d.orb

LATTICE_CONSTANT
1.889726

LATTICE_VECTORS
9.979800224300  0.000000000000  0.000000000000
0.000000000000  24.64039993290  0.000000000000
-0.76400291780  0.000000000000  12.66177137440

ATOMIC_POSITIONS
Direct

C 
-0.300
38
0.484765963046  0.317537114598  0.734643070368  1  1  1  
0.250556562338  0.293233128379  0.336553070306  1  1  1  
0.415431942290  0.289879797340  0.937832922816  1  1  1  
0.011146569260  0.258243299702  0.532875701278  1  1  1  
0.179547675922  0.252046953969  0.124855241945  1  1  1  
0.274462646588  0.232435775121  0.658915258957  1  1  1  
0.441687627930  0.215331232850  0.248517400227  1  1  1  
0.033469897189  0.173583381055  0.853781417156  1  1  1  
0.209439970057  0.163041738687  0.452106869700  1  1  1  
0.293292228643  0.147228042362  0.974949415224  1  1  1  
0.468540012795  0.136396542189  0.568979978549  0  0  0  
0.061884999259  0.095043957216  0.176159992788  0  0  0  
0.233719989657  0.081453733156  0.768360018699  0  0  0  
0.323334991978  0.059669498344  0.298390001074  0  0  0  
0.491474986056  0.052272591740  0.891709983315  0  0  0  
0.090805001591  0.018659669902  0.484140008672  0  0  0  
0.253665000247  0.016579290844  0.089199997505  0  0  0  
0.029444990641  0.007540389909  0.690169990091  0  0  0  
0.974675175946  0.303569356550  0.734167040668  1  1  1  
0.750839268532  0.293190302376  0.333579336310  1  1  1  
0.910481413398  0.292831837217  0.941007755047  1  1  1  
0.512288231566  0.256174832549  0.536726097926  1  1  1  
0.679614427856  0.250220570807  0.125322228813  1  1  1  
0.768938810336  0.229407112157  0.654485959937  1  1  1  
0.942214009285  0.215183244077  0.249363251940  1  1  1  
0.535440643947  0.175199181164  0.857052718607  1  1  1  
0.709433571999  0.163003588008  0.451086650335  1  1  1  
0.795086256987  0.147726563091  0.974551103282  1  1  1  
0.968540012880  0.136396542189  0.568979978549  0  0  0  
0.561884999244  0.095043957216  0.176159992788  0  0  0  
0.733720004573  0.081453733156  0.768360018699  0  0  0  
0.823334991963  0.059669498344  0.298390001074  0  0  0  
0.991474986041  0.052272591740  0.891709983315  0  0  0  
0.590804994061  0.018659669902  0.484140008672  0  0  0  
0.753664970372  0.016579290844  0.089199997505  0  0  0  
0.529444992530  0.007540389909  0.690169990091  0  0  0  
0.610636112331  0.338095241905  0.769798888143  1  1  1  
0.732843319188  0.341002429783  0.576488368772  1  1  1  

Fe
1.700
80
0.376843573983  0.292563300996  0.612737831143  1  1  1  
0.318310875375  0.284700075697  0.801544497408  1  1  1  
0.252670074012  0.285533404143  0.002560216407  1  1  1  
0.423234472052  0.281701124426  0.406497727451  1  1  1  
0.062017588125  0.280684514730  0.860818814309  1  1  1  
0.335734629865  0.280371993275  0.211460411727  1  1  1  
0.121143745856  0.281091009489  0.660413191150  1  1  1  
0.179779076404  0.274327218637  0.465371472664  1  1  1  
0.091538825328  0.271631033603  0.260320016873  1  1  1  
0.001907322111  0.271342453321  0.066981075554  1  1  1  
0.394584043271  0.209156820833  0.929874933165  1  1  1  
0.446517924313  0.201089432111  0.726149828282  1  1  1  
0.279062526238  0.204782795203  0.334333840325  1  1  1  
0.361127149473  0.201200995275  0.534945359471  1  1  1  
0.142392305846  0.198851720312  0.981706490339  1  1  1  
0.330441291156  0.196397226738  0.117764491426  1  1  1  
0.200965103734  0.193792496913  0.780465524212  1  1  1  
0.118059911866  0.191592790847  0.579172968816  1  1  1  
0.033645194250  0.190821011399  0.384846591974  1  1  1  
0.089408768232  0.183551545884  0.173837842645  1  1  1  
0.413690000807  0.127142414430  0.250299990206  0  0  0  
0.470494985575  0.118812933555  0.040419999530  0  0  0  
0.385749995740  0.118557862939  0.849259972561  0  0  0  
0.303319990660  0.117306441083  0.644909977881  0  0  0  
0.170965001021  0.114038407804  0.307220011954  0  0  0  
0.359120011309  0.111973971141  0.442050009947  0  0  0  
0.142014995208  0.109542869042  0.892340004404  0  0  0  
0.056749999573  0.107167571800  0.698360025903  0  0  0  
0.224665000990  0.104903861871  0.091190002872  0  0  0  
0.108214996716  0.100368469941  0.496030002856  0  0  0  
0.000964999982  0.039790291337  0.357479989502  0  0  0  
0.412835001956  0.038546849060  0.164590001144  0  0  0  
0.324734985865  0.035788949587  0.960469961145  0  0  0  
0.437864989088  0.031620208159  0.564029991604  0  0  0  
0.383234977738  0.030336910847  0.762780010665  0  0  0  
0.167870000002  0.029778949936  0.214029997610  0  0  0  
0.081110000566  0.027092790248  0.019460000083  0  0  0  
0.189555004196  0.024550100796  0.618539989028  0  0  0  
0.252149999122  0.024502279251  0.419440001242  0  0  0  
0.131804987766  0.020556719955  0.812569975857  0  0  0  
0.873474907611  0.290599967689  0.612948847531  1  1  1  
0.805940382087  0.293226740059  0.807001026479  1  1  1  
0.748965079513  0.286441117193  0.005581146710  1  1  1  
0.924822895094  0.281763401625  0.402246359220  1  1  1  
0.567587541302  0.273803628427  0.859624247928  1  1  1  
0.836044034030  0.280098070797  0.209377977706  1  1  1  
0.629464341788  0.285660281804  0.651712080351  1  1  1  
0.675833217169  0.276265451816  0.461636984848  1  1  1  
0.590870787293  0.271597099815  0.259220194111  1  1  1  
0.501423530853  0.270007896148  0.067076747523  1  1  1  
0.893938510378  0.211083849619  0.926553618188  1  1  1  
0.945091016808  0.206691711328  0.728737537384  1  1  1  
0.778436718928  0.205052217317  0.333827282019  1  1  1  
0.863225368333  0.200581965500  0.533050801518  1  1  1  
0.645062751494  0.197745235282  0.984636953768  1  1  1  
0.833779671885  0.196190061000  0.116874213712  1  1  1  
0.700141924639  0.193837548492  0.779029883769  1  1  1  
0.618155969698  0.191588756291  0.576175523518  1  1  1  
0.533498188022  0.191139662447  0.383966614946  1  1  1  
0.588982916551  0.182921564935  0.174326823238  1  1  1  
0.913689970931  0.127142414430  0.250299990206  0  0  0  
0.970494985560  0.118812933555  0.040419999530  0  0  0  
0.885749995725  0.118557862939  0.849259972561  0  0  0  
0.803319990645  0.117306441083  0.644909977881  0  0  0  
0.670965015936  0.114038407804  0.307220011954  0  0  0  
0.859120011294  0.111973971141  0.442050009947  0  0  0  
0.642014980363  0.109542869042  0.892340004404  0  0  0  
0.556749999558  0.107167571800  0.698360025903  0  0  0  
0.724664986145  0.104903861871  0.091190002872  0  0  0  
0.608214974456  0.100368469941  0.496030002856  0  0  0  
0.500964999165  0.039790291337  0.357479989502  0  0  0  
0.912835001941  0.038546849060  0.164590001144  0  0  0  
0.824734985850  0.035788949587  0.960469961145  0  0  0  
0.937865018833  0.031620208159  0.564029991604  0  0  0  
0.883234977723  0.030336910847  0.762780010665  0  0  0  
0.667869985057  0.029778949936  0.214029997610  0  0  0  
0.581110000651  0.027092790248  0.019460000083  0  0  0  
0.689554989351  0.024550100796  0.618539989028  0  0  0  
0.752149999107  0.024502279251  0.419440001242  0  0  0  
0.631805002681  0.020556719955  0.812569975857  0  0  0  

H 
0.000
1
0.640303983026  0.380637220760  0.779240409738  1  1  1  

O 
0.000
1
0.717027388239  0.388126073758  0.555854539588  1  1  1  
