ATOMIC_SPECIES
H   1.008         H_ONCV_PBE-1.0.upf
Au  196.966569    Au_ONCV_PBE-1.0.upf

NUMERICAL_ORBITAL
H_gga_6au_100Ry_2s1p.orb
Au_gga_7au_100Ry_4s2p2d1f.orb

LATTICE_CONSTANT
1.889726

LATTICE_VECTORS
11.535196000      0.0000000000      0.0000000000      
0.0000000000      19.063794000      0.0000000000      
-5.767598000      0.0000000000      9.9897730000      

ATOMIC_POSITIONS
Direct

H
0.0000000000
2
0.5209050000 0.5331390000 0.6631450000 1 1 1 mag 0.0 
0.4294130000 0.5357810000 0.5579720000 1 1 1 mag 0.0 

Au
0.0000000000
64
0.0400220000 0.0995420000 0.0400430000 0 0 0 mag 0.0 
0.2900110000 0.0994650000 0.0399930000 0 0 0 mag 0.0 
0.5400320000 0.0995210000 0.0399310000 0 0 0 mag 0.0 
0.7900030000 0.0995810000 0.0399630000 0 0 0 mag 0.0 
0.0400590000 0.0995870000 0.2900230000 0 0 0 mag 0.0 
0.2900040000 0.0995520000 0.2900120000 0 0 0 mag 0.0 
0.5400250000 0.0994920000 0.2899890000 0 0 0 mag 0.0 
0.7900790000 0.0995160000 0.2899530000 0 0 0 mag 0.0 
0.0400910000 0.0995250000 0.5399930000 0 0 0 mag 0.0 
0.2900300000 0.0995860000 0.5399950000 0 0 0 mag 0.0 
0.5400120000 0.0995620000 0.5400070000 0 0 0 mag 0.0 
0.7900350000 0.0994910000 0.5400000000 0 0 0 mag 0.0 
0.0400460000 0.0994640000 0.7900200000 0 0 0 mag 0.0 
0.2900400000 0.0995200000 0.7899840000 0 0 0 mag 0.0 
0.5400260000 0.0995820000 0.7899880000 0 0 0 mag 0.0 
0.7900200000 0.0995470000 0.7900240000 0 0 0 mag 0.0 
0.1232720000 0.2229130000 0.2065740000 0 0 0 mag 0.0 
0.3732650000 0.2227610000 0.2064450000 0 0 0 mag 0.0 
0.6233940000 0.2228580000 0.2065580000 0 0 0 mag 0.0 
0.8733750000 0.2229740000 0.2066510000 0 0 0 mag 0.0 
0.1232500000 0.2228850000 0.4566100000 0 0 0 mag 0.0 
0.3732590000 0.2227390000 0.4565540000 0 0 0 mag 0.0 
0.6234890000 0.2226980000 0.4565500000 0 0 0 mag 0.0 
0.8734670000 0.2228590000 0.4566390000 0 0 0 mag 0.0 
0.1233680000 0.2228270000 0.7067450000 0 0 0 mag 0.0 
0.3733050000 0.2227700000 0.7067340000 0 0 0 mag 0.0 
0.6234820000 0.2227420000 0.7067750000 0 0 0 mag 0.0 
0.8735930000 0.2227620000 0.7067770000 0 0 0 mag 0.0 
0.1233690000 0.2228760000 0.9567030000 0 0 0 mag 0.0 
0.3732960000 0.2228260000 0.9566640000 0 0 0 mag 0.0 
0.6234240000 0.2228890000 0.9567740000 0 0 0 mag 0.0 
0.8734580000 0.2229150000 0.9567570000 0 0 0 mag 0.0 
0.2071810000 0.3455330000 0.1224680000 1 1 1 mag 0.0 
0.4571050000 0.3459400000 0.1229850000 1 1 1 mag 0.0 
0.7064120000 0.3467990000 0.1239650000 1 1 1 mag 0.0 
0.9563760000 0.3464540000 0.1238140000 1 1 1 mag 0.0 
0.2061980000 0.3464880000 0.3718810000 1 1 1 mag 0.0 
0.4561800000 0.3476690000 0.3752790000 1 1 1 mag 0.0 
0.7058370000 0.3461150000 0.3741120000 1 1 1 mag 0.0 
0.9561490000 0.3466200000 0.3738910000 1 1 1 mag 0.0 
0.2087860000 0.3471090000 0.6228750000 1 1 1 mag 0.0 
0.4566130000 0.3475870000 0.6233340000 1 1 1 mag 0.0 
0.7037050000 0.3483350000 0.6233040000 1 1 1 mag 0.0 
0.9568570000 0.3457780000 0.6231090000 1 1 1 mag 0.0 
0.2075750000 0.3456140000 0.8728260000 1 1 1 mag 0.0 
0.4577180000 0.3472010000 0.8719310000 1 1 1 mag 0.0 
0.7080780000 0.3465720000 0.8736160000 1 1 1 mag 0.0 
0.9571800000 0.3453050000 0.8727610000 1 1 1 mag 0.0 
0.0414160000 0.4733330000 0.0390320000 1 1 1 mag 0.0 
0.2902830000 0.4730380000 0.0375960000 1 1 1 mag 0.0 
0.5401180000 0.4736770000 0.0425380000 1 1 1 mag 0.0 
0.7943350000 0.4741930000 0.0442110000 1 1 1 mag 0.0 
0.0371090000 0.4742620000 0.2870340000 1 1 1 mag 0.0 
0.2861380000 0.4732460000 0.2834490000 1 1 1 mag 0.0 
0.5393580000 0.4732350000 0.2880570000 1 1 1 mag 0.0 
0.7895900000 0.4730450000 0.2910840000 1 1 1 mag 0.0 
0.0387300000 0.4734300000 0.5402240000 1 1 1 mag 0.0 
0.2798990000 0.4742980000 0.5311880000 1 1 1 mag 0.0 
0.5429420000 0.4789630000 0.5334700000 1 1 1 mag 0.0 
0.7914240000 0.4729610000 0.5407480000 1 1 1 mag 0.0 
0.0418280000 0.4727060000 0.7892890000 1 1 1 mag 0.0 
0.2914460000 0.4733880000 0.7885920000 1 1 1 mag 0.0 
0.5491340000 0.4753560000 0.8015250000 1 1 1 mag 0.0 
0.7958480000 0.4730330000 0.7935390000 1 1 1 mag 0.0 

