INPUT_PARAMETERS
# Created by Atomic Simulation Enviroment
calculation                             scf
ecutwfc                                 100
smearing_method                         gaussian
smearing_sigma                          0.002
basis_type                              lcao
ks_solver                               genelpa
mixing_type                             pulay
scf_thr                                 1e-06
scf_nmax                                300
cal_force                               1
cal_stress                              1
out_stru                                1
out_chg                                 0
out_bandgap                             0
efield_flag                             0
dip_cor_flag                            0
efield_dir                              2
efield_pos_max                          0.6
ntype                                   2
dft_functional                          pbe
