ATOMIC_SPECIES
Li  6.94          Li_ONCV_PBE-1.2.upf
Si  28.085        Si_ONCV_PBE-1.2.upf

NUMERICAL_ORBITAL
Li_gga_8au_100Ry_4s1p.orb
Si_gga_8au_100Ry_2s2p1d.orb

LATTICE_CONSTANT
1.8897261258369282 

LATTICE_VECTORS
10.862000000      0.0000000000      0.0000000000      
0.0000000000      10.862000000      0.0000000000      
0.0000000000      0.0000000000      10.862000000      

ATOMIC_POSITIONS
Direct

Li
0.0000000000
1
0.6276640000 0.6276640000 0.6276640000 1 1 1 v 0.0 0.0 0.0 mag 0.0 

Si
0.0000000000
64
0.1276030000 0.3772850000 0.1276090000 1 1 1 v 0.0 0.0 0.0 mag 0.0 
0.1276250000 0.3778800000 0.6275960000 1 1 1 v 0.0 0.0 0.0 mag 0.0 
0.1276160000 0.8779090000 0.1276220000 1 1 1 v 0.0 0.0 0.0 mag 0.0 
0.1276230000 0.8773280000 0.6275870000 1 1 1 v 0.0 0.0 0.0 mag 0.0 
0.6275960000 0.3778840000 0.1276250000 1 1 1 v 0.0 0.0 0.0 mag 0.0 
0.6276080000 0.3761480000 0.6276080000 1 1 1 v 0.0 0.0 0.0 mag 0.0 
0.6275880000 0.8773230000 0.1276220000 1 1 1 v 0.0 0.0 0.0 mag 0.0 
0.6276470000 0.8791410000 0.6276520000 1 1 1 v 0.0 0.0 0.0 mag 0.0 
0.0026840000 0.0026830000 0.2525220000 1 1 1 v 0.0 0.0 0.0 mag 0.0 
0.0035030000 0.0035060000 0.7519340000 1 1 1 v 0.0 0.0 0.0 mag 0.0 
0.0034940000 0.5032380000 0.2517470000 1 1 1 v 0.0 0.0 0.0 mag 0.0 
0.0027030000 0.5020200000 0.7531740000 1 1 1 v 0.0 0.0 0.0 mag 0.0 
0.5032410000 0.0034860000 0.2517520000 1 1 1 v 0.0 0.0 0.0 mag 0.0 
0.5020180000 0.0027080000 0.7531730000 1 1 1 v 0.0 0.0 0.0 mag 0.0 
0.5020450000 0.5020470000 0.2525480000 1 1 1 v 0.0 0.0 0.0 mag 0.0 
0.4980960000 0.4981060000 0.7571650000 1 1 1 v 0.0 0.0 0.0 mag 0.0 
0.1276100000 0.1276090000 0.3772840000 1 1 1 v 0.0 0.0 0.0 mag 0.0 
0.1276230000 0.1276220000 0.8779100000 1 1 1 v 0.0 0.0 0.0 mag 0.0 
0.1276260000 0.6275960000 0.3778760000 1 1 1 v 0.0 0.0 0.0 mag 0.0 
0.1276230000 0.6275870000 0.8773310000 1 1 1 v 0.0 0.0 0.0 mag 0.0 
0.6275960000 0.1276250000 0.3778710000 1 1 1 v 0.0 0.0 0.0 mag 0.0 
0.6275880000 0.1276230000 0.8773360000 1 1 1 v 0.0 0.0 0.0 mag 0.0 
0.6276080000 0.6276070000 0.3761360000 1 1 1 v 0.0 0.0 0.0 mag 0.0 
0.6276540000 0.6276540000 0.8791520000 1 1 1 v 0.0 0.0 0.0 mag 0.0 
0.0026810000 0.2525250000 0.0026800000 1 1 1 v 0.0 0.0 0.0 mag 0.0 
0.0034820000 0.2517480000 0.5032390000 1 1 1 v 0.0 0.0 0.0 mag 0.0 
0.0035070000 0.7519350000 0.0035020000 1 1 1 v 0.0 0.0 0.0 mag 0.0 
0.0027090000 0.7531740000 0.5020200000 1 1 1 v 0.0 0.0 0.0 mag 0.0 
0.5032410000 0.2517460000 0.0034790000 1 1 1 v 0.0 0.0 0.0 mag 0.0 
0.5020430000 0.2525460000 0.5020450000 1 1 1 v 0.0 0.0 0.0 mag 0.0 
0.5020190000 0.7531730000 0.0027010000 1 1 1 v 0.0 0.0 0.0 mag 0.0 
0.4980890000 0.7571680000 0.4981100000 1 1 1 v 0.0 0.0 0.0 mag 0.0 
0.3773810000 0.3773790000 0.3773840000 1 1 1 v 0.0 0.0 0.0 mag 0.0 
0.3740600000 0.3740620000 0.8811660000 1 1 1 v 0.0 0.0 0.0 mag 0.0 
0.3740530000 0.8811720000 0.3740670000 1 1 1 v 0.0 0.0 0.0 mag 0.0 
0.3773640000 0.8778380000 0.8778400000 1 1 1 v 0.0 0.0 0.0 mag 0.0 
0.8811740000 0.3740630000 0.3740690000 1 1 1 v 0.0 0.0 0.0 mag 0.0 
0.8778430000 0.3773610000 0.8778410000 1 1 1 v 0.0 0.0 0.0 mag 0.0 
0.8778430000 0.8778450000 0.3773650000 1 1 1 v 0.0 0.0 0.0 mag 0.0 
0.8812700000 0.8812670000 0.8812630000 1 1 1 v 0.0 0.0 0.0 mag 0.0 
0.2525210000 0.0026790000 0.0026800000 1 1 1 v 0.0 0.0 0.0 mag 0.0 
0.2517500000 0.0034880000 0.5032380000 1 1 1 v 0.0 0.0 0.0 mag 0.0 
0.2517420000 0.5032380000 0.0034840000 1 1 1 v 0.0 0.0 0.0 mag 0.0 
0.2525470000 0.5020400000 0.5020430000 1 1 1 v 0.0 0.0 0.0 mag 0.0 
0.7519320000 0.0035040000 0.0034980000 1 1 1 v 0.0 0.0 0.0 mag 0.0 
0.7531770000 0.0027030000 0.5020200000 1 1 1 v 0.0 0.0 0.0 mag 0.0 
0.7531750000 0.5020210000 0.0027010000 1 1 1 v 0.0 0.0 0.0 mag 0.0 
0.7571790000 0.4981060000 0.4981090000 1 1 1 v 0.0 0.0 0.0 mag 0.0 
0.3772830000 0.1276090000 0.1276100000 1 1 1 v 0.0 0.0 0.0 mag 0.0 
0.3778750000 0.1276250000 0.6275960000 1 1 1 v 0.0 0.0 0.0 mag 0.0 
0.3778840000 0.6275960000 0.1276250000 1 1 1 v 0.0 0.0 0.0 mag 0.0 
0.3761280000 0.6276020000 0.6276050000 1 1 1 v 0.0 0.0 0.0 mag 0.0 
0.8779110000 0.1276230000 0.1276230000 1 1 1 v 0.0 0.0 0.0 mag 0.0 
0.8773340000 0.1276220000 0.6275870000 1 1 1 v 0.0 0.0 0.0 mag 0.0 
0.8773240000 0.6275870000 0.1276230000 1 1 1 v 0.0 0.0 0.0 mag 0.0 
0.8791600000 0.6276530000 0.6276540000 1 1 1 v 0.0 0.0 0.0 mag 0.0 
0.2525480000 0.2525500000 0.2525510000 1 1 1 v 0.0 0.0 0.0 mag 0.0 
0.2517610000 0.2517580000 0.7519690000 1 1 1 v 0.0 0.0 0.0 mag 0.0 
0.2517480000 0.7519690000 0.2517580000 1 1 1 v 0.0 0.0 0.0 mag 0.0 
0.2525350000 0.7531580000 0.7531610000 1 1 1 v 0.0 0.0 0.0 mag 0.0 
0.7519670000 0.2517560000 0.2517630000 1 1 1 v 0.0 0.0 0.0 mag 0.0 
0.7531670000 0.2525340000 0.7531650000 1 1 1 v 0.0 0.0 0.0 mag 0.0 
0.7531650000 0.7531630000 0.2525360000 1 1 1 v 0.0 0.0 0.0 mag 0.0 
0.7572510000 0.7572390000 0.7572380000 1 1 1 v 0.0 0.0 0.0 mag 0.0 

