ATOMIC_SPECIES
H   1.008         H_ONCV_PBE-1.0.upf
Au  196.966569    Au_ONCV_PBE-1.0.upf

NUMERICAL_ORBITAL
H_gga_6au_100Ry_2s1p.orb
Au_gga_7au_100Ry_4s2p2d1f.orb

LATTICE_CONSTANT
1.8897261258369282 

LATTICE_VECTORS
11.535200000      0.0000000000      0.0000000000      
0.0000000000      19.063800000      0.0000000000      
-5.767600000      0.0000000000      9.9897700000      

ATOMIC_POSITIONS
Direct

H
0.0000000000
2
0.5015820000 0.5998660000 0.6460350000 1 1 1 v 0.0 0.0 0.0 mag 0.0 
0.4365680000 0.6016400000 0.5804030000 1 1 1 v 0.0 0.0 0.0 mag 0.0 

Au
0.0000000000
64
0.0400000000 0.1000000000 0.0400000000 0 0 0 v 0.0 0.0 0.0 mag 0.0 
0.2900000000 0.1000000000 0.0400000000 0 0 0 v 0.0 0.0 0.0 mag 0.0 
0.5400000000 0.1000000000 0.0400000000 0 0 0 v 0.0 0.0 0.0 mag 0.0 
0.7900000000 0.1000000000 0.0400000000 0 0 0 v 0.0 0.0 0.0 mag 0.0 
0.0400000000 0.1000000000 0.2900000000 0 0 0 v 0.0 0.0 0.0 mag 0.0 
0.2900000000 0.1000000000 0.2900000000 0 0 0 v 0.0 0.0 0.0 mag 0.0 
0.5400000000 0.1000000000 0.2900000000 0 0 0 v 0.0 0.0 0.0 mag 0.0 
0.7900000000 0.1000000000 0.2900000000 0 0 0 v 0.0 0.0 0.0 mag 0.0 
0.0400000000 0.1000000000 0.5400000000 0 0 0 v 0.0 0.0 0.0 mag 0.0 
0.2900000000 0.1000000000 0.5400000000 0 0 0 v 0.0 0.0 0.0 mag 0.0 
0.5400000000 0.1000000000 0.5400000000 0 0 0 v 0.0 0.0 0.0 mag 0.0 
0.7900000000 0.1000000000 0.5400000000 0 0 0 v 0.0 0.0 0.0 mag 0.0 
0.0400000000 0.1000000000 0.7900000000 0 0 0 v 0.0 0.0 0.0 mag 0.0 
0.2900000000 0.1000000000 0.7900000000 0 0 0 v 0.0 0.0 0.0 mag 0.0 
0.5400000000 0.1000000000 0.7900000000 0 0 0 v 0.0 0.0 0.0 mag 0.0 
0.7900000000 0.1000000000 0.7900000000 0 0 0 v 0.0 0.0 0.0 mag 0.0 
0.1233330000 0.2235120000 0.2066670000 0 0 0 v 0.0 0.0 0.0 mag 0.0 
0.3733330000 0.2235120000 0.2066670000 0 0 0 v 0.0 0.0 0.0 mag 0.0 
0.6233330000 0.2235120000 0.2066670000 0 0 0 v 0.0 0.0 0.0 mag 0.0 
0.8733330000 0.2235120000 0.2066670000 0 0 0 v 0.0 0.0 0.0 mag 0.0 
0.1233330000 0.2235120000 0.4566670000 0 0 0 v 0.0 0.0 0.0 mag 0.0 
0.3733330000 0.2235120000 0.4566670000 0 0 0 v 0.0 0.0 0.0 mag 0.0 
0.6233330000 0.2235120000 0.4566670000 0 0 0 v 0.0 0.0 0.0 mag 0.0 
0.8733330000 0.2235120000 0.4566670000 0 0 0 v 0.0 0.0 0.0 mag 0.0 
0.1233330000 0.2235120000 0.7066670000 0 0 0 v 0.0 0.0 0.0 mag 0.0 
0.3733330000 0.2235120000 0.7066670000 0 0 0 v 0.0 0.0 0.0 mag 0.0 
0.6233330000 0.2235120000 0.7066670000 0 0 0 v 0.0 0.0 0.0 mag 0.0 
0.8733330000 0.2235120000 0.7066670000 0 0 0 v 0.0 0.0 0.0 mag 0.0 
0.1233330000 0.2235120000 0.9566670000 0 0 0 v 0.0 0.0 0.0 mag 0.0 
0.3733330000 0.2235120000 0.9566670000 0 0 0 v 0.0 0.0 0.0 mag 0.0 
0.6233330000 0.2235120000 0.9566670000 0 0 0 v 0.0 0.0 0.0 mag 0.0 
0.8733330000 0.2235120000 0.9566670000 0 0 0 v 0.0 0.0 0.0 mag 0.0 
0.2061630000 0.3475220000 0.1218110000 1 1 1 v 0.0 0.0 0.0 mag 0.0 
0.4575780000 0.3476210000 0.1235580000 1 1 1 v 0.0 0.0 0.0 mag 0.0 
0.7067690000 0.3475790000 0.1234090000 1 1 1 v 0.0 0.0 0.0 mag 0.0 
0.9563920000 0.3476920000 0.1237380000 1 1 1 v 0.0 0.0 0.0 mag 0.0 
0.2056240000 0.3466060000 0.3712270000 1 1 1 v 0.0 0.0 0.0 mag 0.0 
0.4555300000 0.3465100000 0.3713350000 1 1 1 v 0.0 0.0 0.0 mag 0.0 
0.7065820000 0.3474760000 0.3735290000 1 1 1 v 0.0 0.0 0.0 mag 0.0 
0.9567440000 0.3475760000 0.3733690000 1 1 1 v 0.0 0.0 0.0 mag 0.0 
0.2059840000 0.3466070000 0.6240510000 1 1 1 v 0.0 0.0 0.0 mag 0.0 
0.4566930000 0.3458810000 0.6234650000 1 1 1 v 0.0 0.0 0.0 mag 0.0 
0.7087910000 0.3465080000 0.6246020000 1 1 1 v 0.0 0.0 0.0 mag 0.0 
0.9565580000 0.3476210000 0.6225310000 1 1 1 v 0.0 0.0 0.0 mag 0.0 
0.2064890000 0.3476320000 0.8736400000 1 1 1 v 0.0 0.0 0.0 mag 0.0 
0.4561310000 0.3466090000 0.8741980000 1 1 1 v 0.0 0.0 0.0 mag 0.0 
0.7089000000 0.3466010000 0.8745310000 1 1 1 v 0.0 0.0 0.0 mag 0.0 
0.9582910000 0.3475160000 0.8739530000 1 1 1 v 0.0 0.0 0.0 mag 0.0 
0.0405910000 0.4754810000 0.0397170000 1 1 1 v 0.0 0.0 0.0 mag 0.0 
0.2902190000 0.4754280000 0.0395990000 1 1 1 v 0.0 0.0 0.0 mag 0.0 
0.5403970000 0.4752640000 0.0409300000 1 1 1 v 0.0 0.0 0.0 mag 0.0 
0.7912890000 0.4753400000 0.0409240000 1 1 1 v 0.0 0.0 0.0 mag 0.0 
0.0393590000 0.4753300000 0.2890120000 1 1 1 v 0.0 0.0 0.0 mag 0.0 
0.2899310000 0.4741400000 0.2896590000 1 1 1 v 0.0 0.0 0.0 mag 0.0 
0.5400360000 0.4750740000 0.2892370000 1 1 1 v 0.0 0.0 0.0 mag 0.0 
0.7901580000 0.4750050000 0.2901450000 1 1 1 v 0.0 0.0 0.0 mag 0.0 
0.0393760000 0.4752460000 0.5399170000 1 1 1 v 0.0 0.0 0.0 mag 0.0 
0.2871390000 0.4701340000 0.5382900000 1 1 1 v 0.0 0.0 0.0 mag 0.0 
0.5416070000 0.4692950000 0.5386140000 1 1 1 v 0.0 0.0 0.0 mag 0.0 
0.7910490000 0.4750770000 0.5402620000 1 1 1 v 0.0 0.0 0.0 mag 0.0 
0.0407210000 0.4754180000 0.7901100000 1 1 1 v 0.0 0.0 0.0 mag 0.0 
0.2906850000 0.4743740000 0.7896160000 1 1 1 v 0.0 0.0 0.0 mag 0.0 
0.5420030000 0.4701420000 0.7931620000 1 1 1 v 0.0 0.0 0.0 mag 0.0 
0.7906170000 0.4741260000 0.7903310000 1 1 1 v 0.0 0.0 0.0 mag 0.0 

