ATOMIC_SPECIES
Cu  63.546        Cu_ONCV_PBE-1.0.upf
N   14.007        N_ONCV_PBE-1.0.upf

NUMERICAL_ORBITAL
Cu_gga_8au_100Ry_4s2p2d1f.orb
N_gga_7au_100Ry_2s2p1d.orb

LATTICE_CONSTANT
1.8897261258369282 

LATTICE_VECTORS
10.210600000      0.0000000000      0.0000000000      
0.0000000000      30.252700000      0.0000000000      
5.1053100000      0.0000000000      8.8426600000      

ATOMIC_POSITIONS
Direct

Cu
0.0000000000
64
0.0500000000 0.3966590000 0.0500000000 0 0 0 v 0.0 0.0 0.0 mag 0.0 
0.3000000000 0.3966590000 0.0500000000 0 0 0 v 0.0 0.0 0.0 mag 0.0 
0.5500000000 0.3966590000 0.0500000000 0 0 0 v 0.0 0.0 0.0 mag 0.0 
0.8000000000 0.3966590000 0.0500000000 0 0 0 v 0.0 0.0 0.0 mag 0.0 
0.0500000000 0.3966590000 0.3000000000 0 0 0 v 0.0 0.0 0.0 mag 0.0 
0.3000000000 0.3966590000 0.3000000000 0 0 0 v 0.0 0.0 0.0 mag 0.0 
0.5500000000 0.3966590000 0.3000000000 0 0 0 v 0.0 0.0 0.0 mag 0.0 
0.8000000000 0.3966590000 0.3000000000 0 0 0 v 0.0 0.0 0.0 mag 0.0 
0.0500000000 0.3966590000 0.5500000000 0 0 0 v 0.0 0.0 0.0 mag 0.0 
0.3000000000 0.3966590000 0.5500000000 0 0 0 v 0.0 0.0 0.0 mag 0.0 
0.5500000000 0.3966590000 0.5500000000 0 0 0 v 0.0 0.0 0.0 mag 0.0 
0.8000000000 0.3966590000 0.5500000000 0 0 0 v 0.0 0.0 0.0 mag 0.0 
0.0500000000 0.3966590000 0.8000000000 0 0 0 v 0.0 0.0 0.0 mag 0.0 
0.3000000000 0.3966590000 0.8000000000 0 0 0 v 0.0 0.0 0.0 mag 0.0 
0.5500000000 0.3966590000 0.8000000000 0 0 0 v 0.0 0.0 0.0 mag 0.0 
0.8000000000 0.3966590000 0.8000000000 0 0 0 v 0.0 0.0 0.0 mag 0.0 
0.1333330000 0.4655530000 0.1333330000 0 0 0 v 0.0 0.0 0.0 mag 0.0 
0.3833330000 0.4655530000 0.1333330000 0 0 0 v 0.0 0.0 0.0 mag 0.0 
0.6333330000 0.4655530000 0.1333330000 0 0 0 v 0.0 0.0 0.0 mag 0.0 
0.8833330000 0.4655530000 0.1333330000 0 0 0 v 0.0 0.0 0.0 mag 0.0 
0.1333330000 0.4655530000 0.3833330000 0 0 0 v 0.0 0.0 0.0 mag 0.0 
0.3833330000 0.4655530000 0.3833330000 0 0 0 v 0.0 0.0 0.0 mag 0.0 
0.6333330000 0.4655530000 0.3833330000 0 0 0 v 0.0 0.0 0.0 mag 0.0 
0.8833330000 0.4655530000 0.3833330000 0 0 0 v 0.0 0.0 0.0 mag 0.0 
0.1333330000 0.4655530000 0.6333330000 0 0 0 v 0.0 0.0 0.0 mag 0.0 
0.3833330000 0.4655530000 0.6333330000 0 0 0 v 0.0 0.0 0.0 mag 0.0 
0.6333330000 0.4655530000 0.6333330000 0 0 0 v 0.0 0.0 0.0 mag 0.0 
0.8833330000 0.4655530000 0.6333330000 0 0 0 v 0.0 0.0 0.0 mag 0.0 
0.1333330000 0.4655530000 0.8833330000 0 0 0 v 0.0 0.0 0.0 mag 0.0 
0.3833330000 0.4655530000 0.8833330000 0 0 0 v 0.0 0.0 0.0 mag 0.0 
0.6333330000 0.4655530000 0.8833330000 0 0 0 v 0.0 0.0 0.0 mag 0.0 
0.8833330000 0.4655530000 0.8833330000 0 0 0 v 0.0 0.0 0.0 mag 0.0 
0.9665810000 0.5324380000 0.2162520000 1 1 1 v 0.0 0.0 0.0 mag 0.0 
0.2188050000 0.5321050000 0.2154760000 1 1 1 v 0.0 0.0 0.0 mag 0.0 
0.4656330000 0.5321730000 0.2181320000 1 1 1 v 0.0 0.0 0.0 mag 0.0 
0.7151030000 0.5321090000 0.2154510000 1 1 1 v 0.0 0.0 0.0 mag 0.0 
0.9697540000 0.5317150000 0.4648090000 1 1 1 v 0.0 0.0 0.0 mag 0.0 
0.2165760000 0.5325610000 0.4674500000 1 1 1 v 0.0 0.0 0.0 mag 0.0 
0.4653590000 0.5325750000 0.4674650000 1 1 1 v 0.0 0.0 0.0 mag 0.0 
0.7148030000 0.5317030000 0.4647970000 1 1 1 v 0.0 0.0 0.0 mag 0.0 
0.9658950000 0.5328560000 0.7161240000 1 1 1 v 0.0 0.0 0.0 mag 0.0 
0.2161540000 0.5324100000 0.7170750000 1 1 1 v 0.0 0.0 0.0 mag 0.0 
0.4673540000 0.5328340000 0.7160990000 1 1 1 v 0.0 0.0 0.0 mag 0.0 
0.7171110000 0.5327780000 0.7151770000 1 1 1 v 0.0 0.0 0.0 mag 0.0 
0.9661110000 0.5325310000 0.9668970000 1 1 1 v 0.0 0.0 0.0 mag 0.0 
0.2164050000 0.5325270000 0.9669070000 1 1 1 v 0.0 0.0 0.0 mag 0.0 
0.4679300000 0.5325860000 0.9655370000 1 1 1 v 0.0 0.0 0.0 mag 0.0 
0.7159630000 0.5326160000 0.9654560000 1 1 1 v 0.0 0.0 0.0 mag 0.0 
0.0504450000 0.6000500000 0.0480310000 1 1 1 v 0.0 0.0 0.0 mag 0.0 
0.2998880000 0.5998650000 0.0500980000 1 1 1 v 0.0 0.0 0.0 mag 0.0 
0.5473140000 0.5994720000 0.0543180000 1 1 1 v 0.0 0.0 0.0 mag 0.0 
0.7990000000 0.5998610000 0.0500080000 1 1 1 v 0.0 0.0 0.0 mag 0.0 
0.0561580000 0.5993690000 0.2922680000 1 1 1 v 0.0 0.0 0.0 mag 0.0 
0.2994610000 0.5999370000 0.3012350000 1 1 1 v 0.0 0.0 0.0 mag 0.0 
0.5482580000 0.5999360000 0.3012500000 1 1 1 v 0.0 0.0 0.0 mag 0.0 
0.8005600000 0.5993560000 0.2922700000 1 1 1 v 0.0 0.0 0.0 mag 0.0 
0.0522590000 0.5998590000 0.5477290000 1 1 1 v 0.0 0.0 0.0 mag 0.0 
0.2989900000 0.6001610000 0.5509320000 1 1 1 v 0.0 0.0 0.0 mag 0.0 
0.5489770000 0.5998730000 0.5478260000 1 1 1 v 0.0 0.0 0.0 mag 0.0 
0.8097110000 0.5957470000 0.5296510000 1 1 1 v 0.0 0.0 0.0 mag 0.0 
0.0507240000 0.5998530000 0.8001980000 1 1 1 v 0.0 0.0 0.0 mag 0.0 
0.2979890000 0.5998530000 0.8002210000 1 1 1 v 0.0 0.0 0.0 mag 0.0 
0.5428240000 0.5998680000 0.8051880000 1 1 1 v 0.0 0.0 0.0 mag 0.0 
0.8008780000 0.5999830000 0.8049810000 1 1 1 v 0.0 0.0 0.0 mag 0.0 

N
0.0000000000
2
0.6857590000 0.6556910000 0.6629130000 1 1 1 v 0.0 0.0 0.0 mag 0.0 
0.7975120000 0.6556000000 0.6648170000 1 1 1 v 0.0 0.0 0.0 mag 0.0 

