ATOMIC_SPECIES
H   1.008         H_ONCV_PBE-1.0.upf
Au  196.966569    Au_ONCV_PBE-1.0.upf

NUMERICAL_ORBITAL
H_gga_6au_100Ry_2s1p.orb
Au_gga_7au_100Ry_4s2p2d1f.orb

LATTICE_CONSTANT
1.8897261258369282 

LATTICE_VECTORS
11.535200000      0.0000000000      0.0000000000      
0.0000000000      19.063800000      0.0000000000      
-5.767600000      0.0000000000      9.9897700000      

ATOMIC_POSITIONS
Direct

H
0.0000000000
2
0.5858180000 0.5281600000 0.7003130000 1 1 1 v 0.0 0.0 0.0 mag 0.0 
0.3809440000 0.5288030000 0.4970710000 1 1 1 v 0.0 0.0 0.0 mag 0.0 

Au
0.0000000000
64
0.0400000000 0.1000000000 0.0400000000 0 0 0 v 0.0 0.0 0.0 mag 0.0 
0.2900000000 0.1000000000 0.0400000000 0 0 0 v 0.0 0.0 0.0 mag 0.0 
0.5400000000 0.1000000000 0.0400000000 0 0 0 v 0.0 0.0 0.0 mag 0.0 
0.7900000000 0.1000000000 0.0400000000 0 0 0 v 0.0 0.0 0.0 mag 0.0 
0.0400000000 0.1000000000 0.2900000000 0 0 0 v 0.0 0.0 0.0 mag 0.0 
0.2900000000 0.1000000000 0.2900000000 0 0 0 v 0.0 0.0 0.0 mag 0.0 
0.5400000000 0.1000000000 0.2900000000 0 0 0 v 0.0 0.0 0.0 mag 0.0 
0.7900000000 0.1000000000 0.2900000000 0 0 0 v 0.0 0.0 0.0 mag 0.0 
0.0400000000 0.1000000000 0.5400000000 0 0 0 v 0.0 0.0 0.0 mag 0.0 
0.2900000000 0.1000000000 0.5400000000 0 0 0 v 0.0 0.0 0.0 mag 0.0 
0.5400000000 0.1000000000 0.5400000000 0 0 0 v 0.0 0.0 0.0 mag 0.0 
0.7900000000 0.1000000000 0.5400000000 0 0 0 v 0.0 0.0 0.0 mag 0.0 
0.0400000000 0.1000000000 0.7900000000 0 0 0 v 0.0 0.0 0.0 mag 0.0 
0.2900000000 0.1000000000 0.7900000000 0 0 0 v 0.0 0.0 0.0 mag 0.0 
0.5400000000 0.1000000000 0.7900000000 0 0 0 v 0.0 0.0 0.0 mag 0.0 
0.7900000000 0.1000000000 0.7900000000 0 0 0 v 0.0 0.0 0.0 mag 0.0 
0.1233330000 0.2235120000 0.2066670000 0 0 0 v 0.0 0.0 0.0 mag 0.0 
0.3733330000 0.2235120000 0.2066670000 0 0 0 v 0.0 0.0 0.0 mag 0.0 
0.6233330000 0.2235120000 0.2066670000 0 0 0 v 0.0 0.0 0.0 mag 0.0 
0.8733330000 0.2235120000 0.2066670000 0 0 0 v 0.0 0.0 0.0 mag 0.0 
0.1233330000 0.2235120000 0.4566670000 0 0 0 v 0.0 0.0 0.0 mag 0.0 
0.3733330000 0.2235120000 0.4566670000 0 0 0 v 0.0 0.0 0.0 mag 0.0 
0.6233330000 0.2235120000 0.4566670000 0 0 0 v 0.0 0.0 0.0 mag 0.0 
0.8733330000 0.2235120000 0.4566670000 0 0 0 v 0.0 0.0 0.0 mag 0.0 
0.1233330000 0.2235120000 0.7066670000 0 0 0 v 0.0 0.0 0.0 mag 0.0 
0.3733330000 0.2235120000 0.7066670000 0 0 0 v 0.0 0.0 0.0 mag 0.0 
0.6233330000 0.2235120000 0.7066670000 0 0 0 v 0.0 0.0 0.0 mag 0.0 
0.8733330000 0.2235120000 0.7066670000 0 0 0 v 0.0 0.0 0.0 mag 0.0 
0.1233330000 0.2235120000 0.9566670000 0 0 0 v 0.0 0.0 0.0 mag 0.0 
0.3733330000 0.2235120000 0.9566670000 0 0 0 v 0.0 0.0 0.0 mag 0.0 
0.6233330000 0.2235120000 0.9566670000 0 0 0 v 0.0 0.0 0.0 mag 0.0 
0.8733330000 0.2235120000 0.9566670000 0 0 0 v 0.0 0.0 0.0 mag 0.0 
0.2083900000 0.3466620000 0.1252990000 1 1 1 v 0.0 0.0 0.0 mag 0.0 
0.4559700000 0.3463260000 0.1240060000 1 1 1 v 0.0 0.0 0.0 mag 0.0 
0.7060910000 0.3471340000 0.1239990000 1 1 1 v 0.0 0.0 0.0 mag 0.0 
0.9567240000 0.3470790000 0.1233330000 1 1 1 v 0.0 0.0 0.0 mag 0.0 
0.2059200000 0.3474350000 0.3727000000 1 1 1 v 0.0 0.0 0.0 mag 0.0 
0.4571900000 0.3494560000 0.3781800000 1 1 1 v 0.0 0.0 0.0 mag 0.0 
0.7061560000 0.3468660000 0.3739890000 1 1 1 v 0.0 0.0 0.0 mag 0.0 
0.9561570000 0.3471440000 0.3740690000 1 1 1 v 0.0 0.0 0.0 mag 0.0 
0.2077800000 0.3482720000 0.6227130000 1 1 1 v 0.0 0.0 0.0 mag 0.0 
0.4561320000 0.3482470000 0.6239550000 1 1 1 v 0.0 0.0 0.0 mag 0.0 
0.7018970000 0.3494990000 0.6229390000 1 1 1 v 0.0 0.0 0.0 mag 0.0 
0.9560970000 0.3463470000 0.6241670000 1 1 1 v 0.0 0.0 0.0 mag 0.0 
0.2062650000 0.3458400000 0.8738150000 1 1 1 v 0.0 0.0 0.0 mag 0.0 
0.4573410000 0.3482390000 0.8723230000 1 1 1 v 0.0 0.0 0.0 mag 0.0 
0.7073490000 0.3474440000 0.8741500000 1 1 1 v 0.0 0.0 0.0 mag 0.0 
0.9546440000 0.3467370000 0.8716150000 1 1 1 v 0.0 0.0 0.0 mag 0.0 
0.0400300000 0.4740090000 0.0399680000 1 1 1 v 0.0 0.0 0.0 mag 0.0 
0.2892660000 0.4734530000 0.0408160000 1 1 1 v 0.0 0.0 0.0 mag 0.0 
0.5389060000 0.4731980000 0.0442250000 1 1 1 v 0.0 0.0 0.0 mag 0.0 
0.7917380000 0.4736820000 0.0440610000 1 1 1 v 0.0 0.0 0.0 mag 0.0 
0.0361360000 0.4736880000 0.2883840000 1 1 1 v 0.0 0.0 0.0 mag 0.0 
0.2858490000 0.4755480000 0.2855350000 1 1 1 v 0.0 0.0 0.0 mag 0.0 
0.5388400000 0.4733580000 0.2924830000 1 1 1 v 0.0 0.0 0.0 mag 0.0 
0.7881560000 0.4739130000 0.2920330000 1 1 1 v 0.0 0.0 0.0 mag 0.0 
0.0359770000 0.4731950000 0.5412380000 1 1 1 v 0.0 0.0 0.0 mag 0.0 
0.2796930000 0.4766300000 0.5393510000 1 1 1 v 0.0 0.0 0.0 mag 0.0 
0.5394340000 0.4870090000 0.5401320000 1 1 1 v 0.0 0.0 0.0 mag 0.0 
0.7875030000 0.4733510000 0.5412650000 1 1 1 v 0.0 0.0 0.0 mag 0.0 
0.0391510000 0.4734680000 0.7907580000 1 1 1 v 0.0 0.0 0.0 mag 0.0 
0.2876210000 0.4733450000 0.7925360000 1 1 1 v 0.0 0.0 0.0 mag 0.0 
0.5407140000 0.4766050000 0.8005610000 1 1 1 v 0.0 0.0 0.0 mag 0.0 
0.7943100000 0.4757830000 0.7942110000 1 1 1 v 0.0 0.0 0.0 mag 0.0 

