ATOMIC_SPECIES
H   1.008         H_ONCV_PBE-1.0.upf
Au  196.966569    Au_ONCV_PBE-1.0.upf

NUMERICAL_ORBITAL
H_gga_6au_100Ry_2s1p.orb
Au_gga_7au_100Ry_4s2p2d1f.orb

LATTICE_CONSTANT
1.8897261258369282 

LATTICE_VECTORS
11.535200000      0.0000000000      0.0000000000      
0.0000000000      19.063800000      0.0000000000      
-5.767600000      0.0000000000      9.9897700000      

ATOMIC_POSITIONS
Direct

H
0.0000000000
2
0.5589560000 0.5328180000 0.6889770000 1 1 1 v 0.0 0.0 0.0 mag 0.0 
0.3925080000 0.5326210000 0.5219480000 1 1 1 v 0.0 0.0 0.0 mag 0.0 

Au
0.0000000000
64
0.0400000000 0.1000000000 0.0400000000 0 0 0 v 0.0 0.0 0.0 mag 0.0 
0.2900000000 0.1000000000 0.0400000000 0 0 0 v 0.0 0.0 0.0 mag 0.0 
0.5400000000 0.1000000000 0.0400000000 0 0 0 v 0.0 0.0 0.0 mag 0.0 
0.7900000000 0.1000000000 0.0400000000 0 0 0 v 0.0 0.0 0.0 mag 0.0 
0.0400000000 0.1000000000 0.2900000000 0 0 0 v 0.0 0.0 0.0 mag 0.0 
0.2900000000 0.1000000000 0.2900000000 0 0 0 v 0.0 0.0 0.0 mag 0.0 
0.5400000000 0.1000000000 0.2900000000 0 0 0 v 0.0 0.0 0.0 mag 0.0 
0.7900000000 0.1000000000 0.2900000000 0 0 0 v 0.0 0.0 0.0 mag 0.0 
0.0400000000 0.1000000000 0.5400000000 0 0 0 v 0.0 0.0 0.0 mag 0.0 
0.2900000000 0.1000000000 0.5400000000 0 0 0 v 0.0 0.0 0.0 mag 0.0 
0.5400000000 0.1000000000 0.5400000000 0 0 0 v 0.0 0.0 0.0 mag 0.0 
0.7900000000 0.1000000000 0.5400000000 0 0 0 v 0.0 0.0 0.0 mag 0.0 
0.0400000000 0.1000000000 0.7900000000 0 0 0 v 0.0 0.0 0.0 mag 0.0 
0.2900000000 0.1000000000 0.7900000000 0 0 0 v 0.0 0.0 0.0 mag 0.0 
0.5400000000 0.1000000000 0.7900000000 0 0 0 v 0.0 0.0 0.0 mag 0.0 
0.7900000000 0.1000000000 0.7900000000 0 0 0 v 0.0 0.0 0.0 mag 0.0 
0.1233330000 0.2235120000 0.2066670000 0 0 0 v 0.0 0.0 0.0 mag 0.0 
0.3733330000 0.2235120000 0.2066670000 0 0 0 v 0.0 0.0 0.0 mag 0.0 
0.6233330000 0.2235120000 0.2066670000 0 0 0 v 0.0 0.0 0.0 mag 0.0 
0.8733330000 0.2235120000 0.2066670000 0 0 0 v 0.0 0.0 0.0 mag 0.0 
0.1233330000 0.2235120000 0.4566670000 0 0 0 v 0.0 0.0 0.0 mag 0.0 
0.3733330000 0.2235120000 0.4566670000 0 0 0 v 0.0 0.0 0.0 mag 0.0 
0.6233330000 0.2235120000 0.4566670000 0 0 0 v 0.0 0.0 0.0 mag 0.0 
0.8733330000 0.2235120000 0.4566670000 0 0 0 v 0.0 0.0 0.0 mag 0.0 
0.1233330000 0.2235120000 0.7066670000 0 0 0 v 0.0 0.0 0.0 mag 0.0 
0.3733330000 0.2235120000 0.7066670000 0 0 0 v 0.0 0.0 0.0 mag 0.0 
0.6233330000 0.2235120000 0.7066670000 0 0 0 v 0.0 0.0 0.0 mag 0.0 
0.8733330000 0.2235120000 0.7066670000 0 0 0 v 0.0 0.0 0.0 mag 0.0 
0.1233330000 0.2235120000 0.9566670000 0 0 0 v 0.0 0.0 0.0 mag 0.0 
0.3733330000 0.2235120000 0.9566670000 0 0 0 v 0.0 0.0 0.0 mag 0.0 
0.6233330000 0.2235120000 0.9566670000 0 0 0 v 0.0 0.0 0.0 mag 0.0 
0.8733330000 0.2235120000 0.9566670000 0 0 0 v 0.0 0.0 0.0 mag 0.0 
0.2082480000 0.3464830000 0.1241710000 1 1 1 v 0.0 0.0 0.0 mag 0.0 
0.4568320000 0.3462310000 0.1239660000 1 1 1 v 0.0 0.0 0.0 mag 0.0 
0.7064260000 0.3473490000 0.1235760000 1 1 1 v 0.0 0.0 0.0 mag 0.0 
0.9566940000 0.3470840000 0.1234850000 1 1 1 v 0.0 0.0 0.0 mag 0.0 
0.2061780000 0.3471450000 0.3720840000 1 1 1 v 0.0 0.0 0.0 mag 0.0 
0.4571230000 0.3491920000 0.3774160000 1 1 1 v 0.0 0.0 0.0 mag 0.0 
0.7062170000 0.3469760000 0.3738930000 1 1 1 v 0.0 0.0 0.0 mag 0.0 
0.9565960000 0.3473770000 0.3737520000 1 1 1 v 0.0 0.0 0.0 mag 0.0 
0.2082580000 0.3486190000 0.6222400000 1 1 1 v 0.0 0.0 0.0 mag 0.0 
0.4564670000 0.3488260000 0.6237170000 1 1 1 v 0.0 0.0 0.0 mag 0.0 
0.7027610000 0.3491950000 0.6230280000 1 1 1 v 0.0 0.0 0.0 mag 0.0 
0.9561580000 0.3462370000 0.6232960000 1 1 1 v 0.0 0.0 0.0 mag 0.0 
0.2073530000 0.3461790000 0.8728590000 1 1 1 v 0.0 0.0 0.0 mag 0.0 
0.4580690000 0.3486610000 0.8719260000 1 1 1 v 0.0 0.0 0.0 mag 0.0 
0.7080810000 0.3471430000 0.8739340000 1 1 1 v 0.0 0.0 0.0 mag 0.0 
0.9560450000 0.3464870000 0.8719660000 1 1 1 v 0.0 0.0 0.0 mag 0.0 
0.0412410000 0.4739520000 0.0391750000 1 1 1 v 0.0 0.0 0.0 mag 0.0 
0.2904010000 0.4733400000 0.0394700000 1 1 1 v 0.0 0.0 0.0 mag 0.0 
0.5396730000 0.4734530000 0.0435880000 1 1 1 v 0.0 0.0 0.0 mag 0.0 
0.7933940000 0.4744290000 0.0441090000 1 1 1 v 0.0 0.0 0.0 mag 0.0 
0.0361710000 0.4744710000 0.2869700000 1 1 1 v 0.0 0.0 0.0 mag 0.0 
0.2860260000 0.4751620000 0.2844160000 1 1 1 v 0.0 0.0 0.0 mag 0.0 
0.5389090000 0.4738920000 0.2919270000 1 1 1 v 0.0 0.0 0.0 mag 0.0 
0.7886460000 0.4736340000 0.2916640000 1 1 1 v 0.0 0.0 0.0 mag 0.0 
0.0367820000 0.4734370000 0.5406060000 1 1 1 v 0.0 0.0 0.0 mag 0.0 
0.2788770000 0.4769450000 0.5343110000 1 1 1 v 0.0 0.0 0.0 mag 0.0 
0.5401400000 0.4861230000 0.5405310000 1 1 1 v 0.0 0.0 0.0 mag 0.0 
0.7882470000 0.4738670000 0.5413120000 1 1 1 v 0.0 0.0 0.0 mag 0.0 
0.0408320000 0.4733190000 0.7898830000 1 1 1 v 0.0 0.0 0.0 mag 0.0 
0.2902550000 0.4739900000 0.7899660000 1 1 1 v 0.0 0.0 0.0 mag 0.0 
0.5459840000 0.4770610000 0.8017000000 1 1 1 v 0.0 0.0 0.0 mag 0.0 
0.7960140000 0.4751460000 0.7943420000 1 1 1 v 0.0 0.0 0.0 mag 0.0 

