ATOMIC_SPECIES
Cu  63.546        Cu_ONCV_PBE-1.0.upf
N   14.007        N_ONCV_PBE-1.0.upf

NUMERICAL_ORBITAL
Cu_gga_8au_100Ry_4s2p2d1f.orb
N_gga_7au_100Ry_2s2p1d.orb

LATTICE_CONSTANT
1.8897261258369282 

LATTICE_VECTORS
10.210600000      0.0000000000      0.0000000000      
0.0000000000      30.252700000      0.0000000000      
5.1053100000      0.0000000000      8.8426600000      

ATOMIC_POSITIONS
Direct

Cu
0.0000000000
64
0.0500000000 0.3966590000 0.0500000000 0 0 0 v 0.0 0.0 0.0 mag 0.0 
0.3000000000 0.3966590000 0.0500000000 0 0 0 v 0.0 0.0 0.0 mag 0.0 
0.5500000000 0.3966590000 0.0500000000 0 0 0 v 0.0 0.0 0.0 mag 0.0 
0.8000000000 0.3966590000 0.0500000000 0 0 0 v 0.0 0.0 0.0 mag 0.0 
0.0500000000 0.3966590000 0.3000000000 0 0 0 v 0.0 0.0 0.0 mag 0.0 
0.3000000000 0.3966590000 0.3000000000 0 0 0 v 0.0 0.0 0.0 mag 0.0 
0.5500000000 0.3966590000 0.3000000000 0 0 0 v 0.0 0.0 0.0 mag 0.0 
0.8000000000 0.3966590000 0.3000000000 0 0 0 v 0.0 0.0 0.0 mag 0.0 
0.0500000000 0.3966590000 0.5500000000 0 0 0 v 0.0 0.0 0.0 mag 0.0 
0.3000000000 0.3966590000 0.5500000000 0 0 0 v 0.0 0.0 0.0 mag 0.0 
0.5500000000 0.3966590000 0.5500000000 0 0 0 v 0.0 0.0 0.0 mag 0.0 
0.8000000000 0.3966590000 0.5500000000 0 0 0 v 0.0 0.0 0.0 mag 0.0 
0.0500000000 0.3966590000 0.8000000000 0 0 0 v 0.0 0.0 0.0 mag 0.0 
0.3000000000 0.3966590000 0.8000000000 0 0 0 v 0.0 0.0 0.0 mag 0.0 
0.5500000000 0.3966590000 0.8000000000 0 0 0 v 0.0 0.0 0.0 mag 0.0 
0.8000000000 0.3966590000 0.8000000000 0 0 0 v 0.0 0.0 0.0 mag 0.0 
0.1333330000 0.4655530000 0.1333330000 0 0 0 v 0.0 0.0 0.0 mag 0.0 
0.3833330000 0.4655530000 0.1333330000 0 0 0 v 0.0 0.0 0.0 mag 0.0 
0.6333330000 0.4655530000 0.1333330000 0 0 0 v 0.0 0.0 0.0 mag 0.0 
0.8833330000 0.4655530000 0.1333330000 0 0 0 v 0.0 0.0 0.0 mag 0.0 
0.1333330000 0.4655530000 0.3833330000 0 0 0 v 0.0 0.0 0.0 mag 0.0 
0.3833330000 0.4655530000 0.3833330000 0 0 0 v 0.0 0.0 0.0 mag 0.0 
0.6333330000 0.4655530000 0.3833330000 0 0 0 v 0.0 0.0 0.0 mag 0.0 
0.8833330000 0.4655530000 0.3833330000 0 0 0 v 0.0 0.0 0.0 mag 0.0 
0.1333330000 0.4655530000 0.6333330000 0 0 0 v 0.0 0.0 0.0 mag 0.0 
0.3833330000 0.4655530000 0.6333330000 0 0 0 v 0.0 0.0 0.0 mag 0.0 
0.6333330000 0.4655530000 0.6333330000 0 0 0 v 0.0 0.0 0.0 mag 0.0 
0.8833330000 0.4655530000 0.6333330000 0 0 0 v 0.0 0.0 0.0 mag 0.0 
0.1333330000 0.4655530000 0.8833330000 0 0 0 v 0.0 0.0 0.0 mag 0.0 
0.3833330000 0.4655530000 0.8833330000 0 0 0 v 0.0 0.0 0.0 mag 0.0 
0.6333330000 0.4655530000 0.8833330000 0 0 0 v 0.0 0.0 0.0 mag 0.0 
0.8833330000 0.4655530000 0.8833330000 0 0 0 v 0.0 0.0 0.0 mag 0.0 
0.9657210000 0.5325610000 0.2178830000 1 1 1 v 0.0 0.0 0.0 mag 0.0 
0.2191830000 0.5319090000 0.2161790000 1 1 1 v 0.0 0.0 0.0 mag 0.0 
0.4646300000 0.5319160000 0.2200680000 1 1 1 v 0.0 0.0 0.0 mag 0.0 
0.7139460000 0.5319060000 0.2161960000 1 1 1 v 0.0 0.0 0.0 mag 0.0 
0.9696590000 0.5321810000 0.4647430000 1 1 1 v 0.0 0.0 0.0 mag 0.0 
0.2134350000 0.5334010000 0.4697970000 1 1 1 v 0.0 0.0 0.0 mag 0.0 
0.4660340000 0.5334140000 0.4698360000 1 1 1 v 0.0 0.0 0.0 mag 0.0 
0.7148990000 0.5321520000 0.4647410000 1 1 1 v 0.0 0.0 0.0 mag 0.0 
0.9651330000 0.5336210000 0.7164700000 1 1 1 v 0.0 0.0 0.0 mag 0.0 
0.2158700000 0.5325490000 0.7175820000 1 1 1 v 0.0 0.0 0.0 mag 0.0 
0.4676940000 0.5336190000 0.7165140000 1 1 1 v 0.0 0.0 0.0 mag 0.0 
0.7173320000 0.5332550000 0.7147150000 1 1 1 v 0.0 0.0 0.0 mag 0.0 
0.9657610000 0.5324960000 0.9671420000 1 1 1 v 0.0 0.0 0.0 mag 0.0 
0.2164330000 0.5324980000 0.9671560000 1 1 1 v 0.0 0.0 0.0 mag 0.0 
0.4680520000 0.5327960000 0.9651760000 1 1 1 v 0.0 0.0 0.0 mag 0.0 
0.7161050000 0.5328010000 0.9651800000 1 1 1 v 0.0 0.0 0.0 mag 0.0 
0.0505960000 0.6002330000 0.0476590000 1 1 1 v 0.0 0.0 0.0 mag 0.0 
0.2993770000 0.5993350000 0.0514150000 1 1 1 v 0.0 0.0 0.0 mag 0.0 
0.5445740000 0.5990850000 0.0596610000 1 1 1 v 0.0 0.0 0.0 mag 0.0 
0.7980910000 0.5993340000 0.0513760000 1 1 1 v 0.0 0.0 0.0 mag 0.0 
0.0584720000 0.5990920000 0.2896560000 1 1 1 v 0.0 0.0 0.0 mag 0.0 
0.2976560000 0.5998850000 0.3038480000 1 1 1 v 0.0 0.0 0.0 mag 0.0 
0.5472870000 0.5998840000 0.3038140000 1 1 1 v 0.0 0.0 0.0 mag 0.0 
0.8007150000 0.5990870000 0.2896240000 1 1 1 v 0.0 0.0 0.0 mag 0.0 
0.0451480000 0.6048080000 0.5507370000 1 1 1 v 0.0 0.0 0.0 mag 0.0 
0.2984470000 0.6002050000 0.5518240000 1 1 1 v 0.0 0.0 0.0 mag 0.0 
0.5528810000 0.6047810000 0.5507000000 1 1 1 v 0.0 0.0 0.0 mag 0.0 
0.8132120000 0.5983490000 0.5223360000 1 1 1 v 0.0 0.0 0.0 mag 0.0 
0.0503800000 0.5998310000 0.8009750000 1 1 1 v 0.0 0.0 0.0 mag 0.0 
0.2974480000 0.5998330000 0.8009570000 1 1 1 v 0.0 0.0 0.0 mag 0.0 
0.5433260000 0.6026030000 0.8127730000 1 1 1 v 0.0 0.0 0.0 mag 0.0 
0.7926580000 0.6026150000 0.8127790000 1 1 1 v 0.0 0.0 0.0 mag 0.0 

N
0.0000000000
2
0.6538380000 0.6383420000 0.6431980000 1 1 1 v 0.0 0.0 0.0 mag 0.0 
0.8516220000 0.6383450000 0.6431870000 1 1 1 v 0.0 0.0 0.0 mag 0.0 

