ATOMIC_SPECIES
C   12.011        C_ONCV_PBE-1.0.upf
Pt  195.084       Pt_ONCV_PBE-1.0.upf
H   1.008         H_ONCV_PBE-1.0.upf

NUMERICAL_ORBITAL
C_gga_7au_100Ry_2s2p1d.orb
Pt_gga_7au_100Ry_4s2p2d1f.orb
H_gga_6au_100Ry_2s1p.orb

LATTICE_CONSTANT
1.8897261258369282 

LATTICE_VECTORS
12.322700000      0.0000000000      0.0000000000      
0.0000000000      20.000000000      0.0000000000      
-6.161540000      0.0000000000      10.671500000      

ATOMIC_POSITIONS
Direct

C
0.0000000000
54
0.0322300000 0.4909580000 0.0319700000 1 1 1 v 0.0 0.0 0.0 mag 0.0 
0.1662480000 0.4908830000 0.1009100000 1 1 1 v 0.0 0.0 0.0 mag 0.0 
0.2348080000 0.4900610000 0.0366880000 1 1 1 v 0.0 0.0 0.0 mag 0.0 
0.3687770000 0.4928240000 0.1054060000 1 1 1 v 0.0 0.0 0.0 mag 0.0 
0.4340120000 0.4901730000 0.0366880000 1 1 1 v 0.0 0.0 0.0 mag 0.0 
0.5667480000 0.4912060000 0.1009470000 1 1 1 v 0.0 0.0 0.0 mag 0.0 
0.6317610000 0.4912630000 0.0319610000 1 1 1 v 0.0 0.0 0.0 mag 0.0 
0.7645040000 0.4902370000 0.0962170000 1 1 1 v 0.0 0.0 0.0 mag 0.0 
0.8297360000 0.4929730000 0.0275110000 1 1 1 v 0.0 0.0 0.0 mag 0.0 
0.9636960000 0.4901310000 0.0962210000 1 1 1 v 0.0 0.0 0.0 mag 0.0 
0.0300930000 0.4860350000 0.2298220000 1 1 1 v 0.0 0.0 0.0 mag 0.0 
0.1628410000 0.4880970000 0.2978960000 1 1 1 v 0.0 0.0 0.0 mag 0.0 
0.2320550000 0.4930410000 0.2344010000 1 1 1 v 0.0 0.0 0.0 mag 0.0 
0.3654750000 0.5011580000 0.3045100000 1 1 1 v 0.0 0.0 0.0 mag 0.0 
0.4353890000 0.4998800000 0.2389060000 1 1 1 v 0.0 0.0 0.0 mag 0.0 
0.5707760000 0.5007630000 0.3046880000 1 1 1 v 0.0 0.0 0.0 mag 0.0 
0.6342400000 0.4932090000 0.2345820000 1 1 1 v 0.0 0.0 0.0 mag 0.0 
0.7670520000 0.4882830000 0.2981180000 1 1 1 v 0.0 0.0 0.0 mag 0.0 
0.8316150000 0.4861310000 0.2299250000 1 1 1 v 0.0 0.0 0.0 mag 0.0 
0.9645270000 0.4829340000 0.2971510000 1 1 1 v 0.0 0.0 0.0 mag 0.0 
0.0315960000 0.4793350000 0.4312460000 1 1 1 v 0.0 0.0 0.0 mag 0.0 
0.1633320000 0.4803080000 0.4994020000 1 1 1 v 0.0 0.0 0.0 mag 0.0 
0.2268940000 0.4866140000 0.4312860000 1 1 1 v 0.0 0.0 0.0 mag 0.0 
0.3558060000 0.4973340000 0.4985640000 1 1 1 v 0.0 0.0 0.0 mag 0.0 
0.4232630000 0.5102800000 0.4362710000 1 1 1 v 0.0 0.0 0.0 mag 0.0 
0.6450170000 0.5094260000 0.4368460000 1 1 1 v 0.0 0.0 0.0 mag 0.0 
0.7750320000 0.4972010000 0.4991600000 1 1 1 v 0.0 0.0 0.0 mag 0.0 
0.8364840000 0.4868220000 0.4315800000 1 1 1 v 0.0 0.0 0.0 mag 0.0 
0.9681670000 0.4804390000 0.4995340000 1 1 1 v 0.0 0.0 0.0 mag 0.0 
0.0351800000 0.4803800000 0.6334980000 1 1 1 v 0.0 0.0 0.0 mag 0.0 
0.1669160000 0.4793820000 0.7016530000 1 1 1 v 0.0 0.0 0.0 mag 0.0 
0.2303660000 0.4804210000 0.6333710000 1 1 1 v 0.0 0.0 0.0 mag 0.0 
0.3620650000 0.4867930000 0.7013220000 1 1 1 v 0.0 0.0 0.0 mag 0.0 
0.4235340000 0.4970890000 0.6337420000 1 1 1 v 0.0 0.0 0.0 mag 0.0 
0.5535480000 0.5094350000 0.6960190000 1 1 1 v 0.0 0.0 0.0 mag 0.0 
0.7752420000 0.5106100000 0.6966330000 1 1 1 v 0.0 0.0 0.0 mag 0.0 
0.8427180000 0.4975680000 0.6343390000 1 1 1 v 0.0 0.0 0.0 mag 0.0 
0.9716090000 0.4867670000 0.7016080000 1 1 1 v 0.0 0.0 0.0 mag 0.0 
0.0356600000 0.4882500000 0.8350010000 1 1 1 v 0.0 0.0 0.0 mag 0.0 
0.1684070000 0.4860810000 0.9030760000 1 1 1 v 0.0 0.0 0.0 mag 0.0 
0.2339810000 0.4829720000 0.8357490000 1 1 1 v 0.0 0.0 0.0 mag 0.0 
0.3669030000 0.4861460000 0.9029750000 1 1 1 v 0.0 0.0 0.0 mag 0.0 
0.4314760000 0.4883340000 0.8347900000 1 1 1 v 0.0 0.0 0.0 mag 0.0 
0.5642840000 0.4933240000 0.8983400000 1 1 1 v 0.0 0.0 0.0 mag 0.0 
0.6277600000 0.5009090000 0.8282290000 1 1 1 v 0.0 0.0 0.0 mag 0.0 
0.7631360000 0.5001100000 0.8940130000 1 1 1 v 0.0 0.0 0.0 mag 0.0 
0.8330270000 0.5014500000 0.8284000000 1 1 1 v 0.0 0.0 0.0 mag 0.0 
0.9664400000 0.4932390000 0.8984820000 1 1 1 v 0.0 0.0 0.0 mag 0.0 
0.5944240000 0.6988450000 0.5468470000 1 1 1 v 0.0 0.0 0.0 mag 0.0 
0.7342260000 0.7136130000 0.6294970000 1 1 1 v 0.0 0.0 0.0 mag 0.0 
0.7550670000 0.7831870000 0.6885450000 1 1 1 v 0.0 0.0 0.0 mag 0.0 
0.6851230000 0.7912430000 0.7613430000 1 1 1 v 0.0 0.0 0.0 mag 0.0 
0.5453620000 0.7754790000 0.6791840000 1 1 1 v 0.0 0.0 0.0 mag 0.0 
0.5251740000 0.7059240000 0.6202850000 1 1 1 v 0.0 0.0 0.0 mag 0.0 

Pt
0.0000000000
1
0.5992610000 0.5290750000 0.5664850000 1 1 1 v 0.0 0.0 0.0 mag 0.0 

H
0.0000000000
12
0.4977450000 0.7795380000 0.7342340000 1 1 1 v 0.0 0.0 0.0 mag 0.0 
0.5533750000 0.7333150000 0.4662190000 1 1 1 v 0.0 0.0 0.0 mag 0.0 
0.7823630000 0.7090750000 0.5750210000 1 1 1 v 0.0 0.0 0.0 mag 0.0 
0.7760720000 0.6755950000 0.7042030000 1 1 1 v 0.0 0.0 0.0 mag 0.0 
0.8556920000 0.7927390000 0.7501780000 1 1 1 v 0.0 0.0 0.0 mag 0.0 
0.7210720000 0.8211850000 0.6137570000 1 1 1 v 0.0 0.0 0.0 mag 0.0 
0.6979560000 0.8421220000 0.7996860000 1 1 1 v 0.0 0.0 0.0 mag 0.0 
0.7262080000 0.7569680000 0.8422760000 1 1 1 v 0.0 0.0 0.0 mag 0.0 
0.5019370000 0.8131290000 0.6039760000 1 1 1 v 0.0 0.0 0.0 mag 0.0 
0.4246940000 0.6956880000 0.5593270000 1 1 1 v 0.0 0.0 0.0 mag 0.0 
0.5605990000 0.6677620000 0.6948770000 1 1 1 v 0.0 0.0 0.0 mag 0.0 
0.5810370000 0.6478310000 0.5073070000 1 1 1 v 0.0 0.0 0.0 mag 0.0 

