ATOMIC_SPECIES
C   12.011        C_ONCV_PBE-1.0.upf
Pt  195.084       Pt_ONCV_PBE-1.0.upf
H   1.008         H_ONCV_PBE-1.0.upf

NUMERICAL_ORBITAL
C_gga_7au_100Ry_2s2p1d.orb
Pt_gga_7au_100Ry_4s2p2d1f.orb
H_gga_6au_100Ry_2s1p.orb

LATTICE_CONSTANT
1.8897261258369282 

LATTICE_VECTORS
12.322700000      0.0000000000      0.0000000000      
0.0000000000      20.000000000      0.0000000000      
-6.161540000      0.0000000000      10.671500000      

ATOMIC_POSITIONS
Direct

C
0.0000000000
54
0.0321140000 0.4929240000 0.0325160000 1 1 1 v 0.0 0.0 0.0 mag 0.0 
0.1661430000 0.4928350000 0.1014660000 1 1 1 v 0.0 0.0 0.0 mag 0.0 
0.2346900000 0.4920280000 0.0372430000 1 1 1 v 0.0 0.0 0.0 mag 0.0 
0.3686730000 0.4948270000 0.1059720000 1 1 1 v 0.0 0.0 0.0 mag 0.0 
0.4338980000 0.4921180000 0.0372430000 1 1 1 v 0.0 0.0 0.0 mag 0.0 
0.5666320000 0.4931650000 0.1015090000 1 1 1 v 0.0 0.0 0.0 mag 0.0 
0.6316550000 0.4931760000 0.0325200000 1 1 1 v 0.0 0.0 0.0 mag 0.0 
0.7644040000 0.4921900000 0.0967680000 1 1 1 v 0.0 0.0 0.0 mag 0.0 
0.8296400000 0.4949410000 0.0280630000 1 1 1 v 0.0 0.0 0.0 mag 0.0 
0.9635930000 0.4920520000 0.0967730000 1 1 1 v 0.0 0.0 0.0 mag 0.0 
0.0300230000 0.4879110000 0.2303870000 1 1 1 v 0.0 0.0 0.0 mag 0.0 
0.1627850000 0.4899700000 0.2984760000 1 1 1 v 0.0 0.0 0.0 mag 0.0 
0.2320010000 0.4949800000 0.2349800000 1 1 1 v 0.0 0.0 0.0 mag 0.0 
0.3654310000 0.5031420000 0.3050930000 1 1 1 v 0.0 0.0 0.0 mag 0.0 
0.4353080000 0.5019840000 0.2394590000 1 1 1 v 0.0 0.0 0.0 mag 0.0 
0.5707190000 0.5030490000 0.3052320000 1 1 1 v 0.0 0.0 0.0 mag 0.0 
0.6341520000 0.4953570000 0.2351130000 1 1 1 v 0.0 0.0 0.0 mag 0.0 
0.7669570000 0.4904320000 0.2986440000 1 1 1 v 0.0 0.0 0.0 mag 0.0 
0.8315300000 0.4881350000 0.2304660000 1 1 1 v 0.0 0.0 0.0 mag 0.0 
0.9644320000 0.4848660000 0.2977000000 1 1 1 v 0.0 0.0 0.0 mag 0.0 
0.0314910000 0.4812880000 0.4317970000 1 1 1 v 0.0 0.0 0.0 mag 0.0 
0.1632440000 0.4821710000 0.4999660000 1 1 1 v 0.0 0.0 0.0 mag 0.0 
0.2268400000 0.4884610000 0.4318750000 1 1 1 v 0.0 0.0 0.0 mag 0.0 
0.3557740000 0.4992100000 0.4991970000 1 1 1 v 0.0 0.0 0.0 mag 0.0 
0.4232070000 0.5122010000 0.4369100000 1 1 1 v 0.0 0.0 0.0 mag 0.0 
0.6449300000 0.5118960000 0.4373270000 1 1 1 v 0.0 0.0 0.0 mag 0.0 
0.7749180000 0.4996090000 0.4996400000 1 1 1 v 0.0 0.0 0.0 mag 0.0 
0.8363880000 0.4890600000 0.4321050000 1 1 1 v 0.0 0.0 0.0 mag 0.0 
0.9680480000 0.4825550000 0.5000680000 1 1 1 v 0.0 0.0 0.0 mag 0.0 
0.0350490000 0.4824990000 0.6340360000 1 1 1 v 0.0 0.0 0.0 mag 0.0 
0.1667890000 0.4813240000 0.7022070000 1 1 1 v 0.0 0.0 0.0 mag 0.0 
0.2302730000 0.4822590000 0.6339390000 1 1 1 v 0.0 0.0 0.0 mag 0.0 
0.3619880000 0.4886170000 0.7019090000 1 1 1 v 0.0 0.0 0.0 mag 0.0 
0.4234640000 0.4990650000 0.6343770000 1 1 1 v 0.0 0.0 0.0 mag 0.0 
0.5534070000 0.5116950000 0.6966580000 1 1 1 v 0.0 0.0 0.0 mag 0.0 
0.7750660000 0.5128620000 0.6971370000 1 1 1 v 0.0 0.0 0.0 mag 0.0 
0.8425800000 0.4998890000 0.6348270000 1 1 1 v 0.0 0.0 0.0 mag 0.0 
0.9714530000 0.4889860000 0.7021170000 1 1 1 v 0.0 0.0 0.0 mag 0.0 
0.0355170000 0.4903620000 0.8355280000 1 1 1 v 0.0 0.0 0.0 mag 0.0 
0.1682600000 0.4880700000 0.9036090000 1 1 1 v 0.0 0.0 0.0 mag 0.0 
0.2338560000 0.4848950000 0.8363020000 1 1 1 v 0.0 0.0 0.0 mag 0.0 
0.3667830000 0.4880230000 0.9035420000 1 1 1 v 0.0 0.0 0.0 mag 0.0 
0.4313720000 0.4901930000 0.8353730000 1 1 1 v 0.0 0.0 0.0 mag 0.0 
0.5641660000 0.4952560000 0.8989140000 1 1 1 v 0.0 0.0 0.0 mag 0.0 
0.6276140000 0.5030340000 0.8288140000 1 1 1 v 0.0 0.0 0.0 mag 0.0 
0.7630100000 0.5021870000 0.8945750000 1 1 1 v 0.0 0.0 0.0 mag 0.0 
0.8328620000 0.5035840000 0.8289330000 1 1 1 v 0.0 0.0 0.0 mag 0.0 
0.9662810000 0.4953410000 0.8990200000 1 1 1 v 0.0 0.0 0.0 mag 0.0 
0.5818130000 0.7008130000 0.5271940000 1 1 1 v 0.0 0.0 0.0 mag 0.0 
0.7216730000 0.7166900000 0.6049730000 1 1 1 v 0.0 0.0 0.0 mag 0.0 
0.7426690000 0.7885020000 0.6545330000 1 1 1 v 0.0 0.0 0.0 mag 0.0 
0.6755840000 0.8015420000 0.7288410000 1 1 1 v 0.0 0.0 0.0 mag 0.0 
0.5358120000 0.7846530000 0.6517350000 1 1 1 v 0.0 0.0 0.0 mag 0.0 
0.5154330000 0.7128530000 0.6022350000 1 1 1 v 0.0 0.0 0.0 mag 0.0 

Pt
0.0000000000
1
0.5991070000 0.5313830000 0.5670910000 1 1 1 v 0.0 0.0 0.0 mag 0.0 

H
0.0000000000
12
0.4903090000 0.7923870000 0.7080530000 1 1 1 v 0.0 0.0 0.0 mag 0.0 
0.5385460000 0.7320730000 0.4420940000 1 1 1 v 0.0 0.0 0.0 mag 0.0 
0.7677220000 0.7084800000 0.5492980000 1 1 1 v 0.0 0.0 0.0 mag 0.0 
0.7656260000 0.6815970000 0.6845680000 1 1 1 v 0.0 0.0 0.0 mag 0.0 
0.8434070000 0.7989710000 0.7128250000 1 1 1 v 0.0 0.0 0.0 mag 0.0 
0.7064390000 0.8234210000 0.5746650000 1 1 1 v 0.0 0.0 0.0 mag 0.0 
0.6883490000 0.8538850000 0.7601730000 1 1 1 v 0.0 0.0 0.0 mag 0.0 
0.7189520000 0.7705370000 0.8142760000 1 1 1 v 0.0 0.0 0.0 mag 0.0 
0.4902730000 0.8193930000 0.5717310000 1 1 1 v 0.0 0.0 0.0 mag 0.0 
0.4148440000 0.7018180000 0.5446400000 1 1 1 v 0.0 0.0 0.0 mag 0.0 
0.5529700000 0.6776780000 0.6818150000 1 1 1 v 0.0 0.0 0.0 mag 0.0 
0.5684090000 0.6483070000 0.4945860000 1 1 1 v 0.0 0.0 0.0 mag 0.0 

