ATOMIC_SPECIES
C   12.011  C_ONCV_PBE-1.0.upf
Fe   55.845  Fe_ONCV_PBE-1.0.upf
K   39.098  K_ONCV_PBE-1.0.upf

NUMERICAL_ORBITAL
C_gga_7au_100Ry_2s2p1d.orb
Fe_gga_8au_100Ry_4s2p2d1f.orb
K_gga_9au_100Ry_4s2p1d.orb

LATTICE_CONSTANT
1.889726

LATTICE_VECTORS
9.979800000000  0.000000000000  0.000000000000
-0.76400300000  12.66177100000  0.000000000000
0.000000000000  0.000000000000  27.54040000000

ATOMIC_POSITIONS
Direct

C 
-0.500
36
0.476522523726  0.734573993735  0.274119707044  1  1  1  
0.251115673730  0.337954336742  0.262437947569  1  1  1  
0.413471095514  0.941865542421  0.262022808060  1  1  1  
0.012215845690  0.535374676310  0.230922754662  1  1  1  
0.180652813515  0.127481336727  0.225218851181  1  1  1  
0.270615237566  0.656619782686  0.205397345100  1  1  1  
0.442008887806  0.248448042621  0.192441911618  1  1  1  
0.033814115915  0.854910449092  0.155045916119  1  1  1  
0.209271232631  0.451259023686  0.145815610649  1  1  1  
0.294510737614  0.974548780267  0.132322790773  1  1  1  
0.468540000000  0.568980000000  0.122034000000  0  0  0  
0.061885000000  0.176160000000  0.085036000000  0  0  0  
0.233720000000  0.768360000000  0.072877000000  0  0  0  
0.323335000000  0.298390000000  0.053386000000  0  0  0  
0.491475000000  0.891710000000  0.046768000000  0  0  0  
0.090805000000  0.484140000000  0.016695000000  0  0  0  
0.253665000000  0.089200000000  0.014833000000  0  0  0  
0.029445000000  0.690170000000  0.006746000000  0  0  0  
0.974713599740  0.735167201426  0.273083705864  1  1  1  
0.750296443660  0.337956958907  0.262911844380  1  1  1  
0.913977284074  0.942633226220  0.261910404804  1  1  1  
0.513380798320  0.535508972051  0.230416782510  1  1  1  
0.680337754846  0.127635961715  0.225016396410  1  1  1  
0.770374277578  0.656101881255  0.203941639274  1  1  1  
0.942281557731  0.248370629643  0.192628080919  1  1  1  
0.533552358788  0.854800782021  0.154961481348  1  1  1  
0.709196159615  0.450907627000  0.145844758283  1  1  1  
0.794307352734  0.974557603973  0.132339477505  1  1  1  
0.968540000000  0.568980000000  0.122034000000  0  0  0  
0.561885000000  0.176160000000  0.085036000000  0  0  0  
0.733720000000  0.768360000000  0.072877000000  0  0  0  
0.823335000000  0.298390000000  0.053386000000  0  0  0  
0.991475000000  0.891710000000  0.046768000000  0  0  0  
0.590805000000  0.484140000000  0.016695000000  0  0  0  
0.753665000000  0.089200000000  0.014833000000  0  0  0  
0.529445000000  0.690170000000  0.006746000000  0  0  0  

Fe
2.000
80
0.374530009651  0.613738202084  0.259603268376  1  1  1  
0.315419676297  0.806863537673  0.257908773139  1  1  1  
0.252198752650  0.006032119497  0.255785171917  1  1  1  
0.423927367333  0.407120278442  0.252304753434  1  1  1  
0.066626601034  0.862190726091  0.252160558160  1  1  1  
0.336592918557  0.212785240215  0.250860855170  1  1  1  
0.121194356706  0.663195944554  0.251298568339  1  1  1  
0.179963479820  0.466470828686  0.245158030234  1  1  1  
0.091671505562  0.261839231296  0.243112439562  1  1  1  
0.003027778577  0.068871790434  0.242311194196  1  1  1  
0.395718882125  0.928050797445  0.188499422013  1  1  1  
0.446393287355  0.728082684107  0.183375105227  1  1  1  
0.279319538501  0.334295306459  0.183404809391  1  1  1  
0.361580479126  0.533706947701  0.179516839081  1  1  1  
0.144113912666  0.981436090419  0.178086018516  1  1  1  
0.331870023795  0.117005391818  0.175887551805  1  1  1  
0.200101122028  0.780887230499  0.174075458386  1  1  1  
0.117150622600  0.577465816250  0.171441672266  1  1  1  
0.033029544860  0.383927774801  0.170593582166  1  1  1  
0.089547491544  0.173506215560  0.164133137412  1  1  1  
0.413690000000  0.250300000000  0.113754000000  0  0  0  
0.470495000000  0.040420000000  0.106302000000  0  0  0  
0.385750000000  0.849260000000  0.106074000000  0  0  0  
0.303320000000  0.644910000000  0.104954000000  0  0  0  
0.170965000000  0.307220000000  0.102030000000  0  0  0  
0.359120000000  0.442050000000  0.100183000000  0  0  0  
0.142015000000  0.892340000000  0.098008000000  0  0  0  
0.056750000000  0.698360000000  0.095883000000  0  0  0  
0.224665000000  0.091190000000  0.093857000000  0  0  0  
0.108215000000  0.496030000000  0.089800000000  0  0  0  
0.000965000000  0.357480000000  0.035600000000  0  0  0  
0.412835000000  0.164590000000  0.034488000000  0  0  0  
0.324735000000  0.960470000000  0.032020000000  0  0  0  
0.437865000000  0.564030000000  0.028291000000  0  0  0  
0.383235000000  0.762780000000  0.027142000000  0  0  0  
0.167870000000  0.214030000000  0.026643000000  0  0  0  
0.081110000000  0.019460000000  0.024240000000  0  0  0  
0.189555000000  0.618540000000  0.021965000000  0  0  0  
0.252150000000  0.419440000000  0.021922000000  0  0  0  
0.131805000000  0.812570000000  0.018392000000  0  0  0  
0.872317661943  0.614720468838  0.258907966614  1  1  1  
0.814890488169  0.808210887338  0.258380604268  1  1  1  
0.752348600323  0.006728242656  0.255849957251  1  1  1  
0.923381469834  0.406792359748  0.252552409923  1  1  1  
0.566764810273  0.862182342447  0.252681502465  1  1  1  
0.836142170548  0.212713052992  0.250957355754  1  1  1  
0.621289174042  0.664416137463  0.249912763214  1  1  1  
0.679899468942  0.465675246833  0.244166475395  1  1  1  
0.591365472103  0.261868034310  0.243233128263  1  1  1  
0.502828500901  0.068379167769  0.242498314560  1  1  1  
0.895986907326  0.928504933509  0.188447983209  1  1  1  
0.946693947354  0.728481094776  0.183673647068  1  1  1  
0.779671198574  0.334011951114  0.183307477396  1  1  1  
0.862435545093  0.533477971027  0.179283268529  1  1  1  
0.643876550585  0.981512222781  0.178153689190  1  1  1  
0.831770495465  0.117212679587  0.175850803233  1  1  1  
0.700069734271  0.781893993672  0.174339472451  1  1  1  
0.617171045893  0.576503357105  0.171013450077  1  1  1  
0.532710256670  0.383650571266  0.170153680924  1  1  1  
0.589409360544  0.173657717577  0.164148594769  1  1  1  
0.913690000000  0.250300000000  0.113754000000  0  0  0  
0.970495000000  0.040420000000  0.106302000000  0  0  0  
0.885750000000  0.849260000000  0.106074000000  0  0  0  
0.803320000000  0.644910000000  0.104954000000  0  0  0  
0.670965000000  0.307220000000  0.102030000000  0  0  0  
0.859120000000  0.442050000000  0.100183000000  0  0  0  
0.642015000000  0.892340000000  0.098008000000  0  0  0  
0.556750000000  0.698360000000  0.095883000000  0  0  0  
0.724665000000  0.091190000000  0.093857000000  0  0  0  
0.608215000000  0.496030000000  0.089800000000  0  0  0  
0.500965000000  0.357480000000  0.035600000000  0  0  0  
0.912835000000  0.164590000000  0.034488000000  0  0  0  
0.824735000000  0.960470000000  0.032020000000  0  0  0  
0.937865000000  0.564030000000  0.028291000000  0  0  0  
0.883235000000  0.762780000000  0.027142000000  0  0  0  
0.667870000000  0.214030000000  0.026643000000  0  0  0  
0.581110000000  0.019460000000  0.024240000000  0  0  0  
0.689555000000  0.618540000000  0.021965000000  0  0  0  
0.752150000000  0.419440000000  0.021922000000  0  0  0  
0.631805000000  0.812570000000  0.018392000000  0  0  0  

K 
0.000
1
0.642110572450  0.558612308170  0.354837638255  1  1  1  
