INPUT_PARAMETERS
# Created by Atomic Simulation Enviroment
calculation                             relax
nspin                                   2
ecutwfc                                 100
smearing_method                         gaussian
smearing_sigma                          0.001
basis_type                              lcao
ks_solver                               genelpa
mixing_type                             broyden
relax_method                            bfgs
force_thr_ev                            0.05
scf_thr                                 1e-06
scf_nmax                                100
vdw_method                              d3_bj
cal_force                               1
cal_stress                              1
out_stru                                1
out_chg                                 0
out_bandgap                             0
efield_flag                             1
dip_cor_flag                            1
efield_dir                              1
efield_pos_max                          0.0
ntype                                   2
dft_functional                          pbe
