ATOMIC_SPECIES
Cu   63.546  Cu_ONCV_PBE-1.0.upf
N   14.007  N_ONCV_PBE-1.0.upf

NUMERICAL_ORBITAL
Cu_gga_8au_100Ry_4s2p2d1f.orb
N_gga_7au_100Ry_2s2p1d.orb

LATTICE_CONSTANT
1.889726

LATTICE_VECTORS
10.21062058147  0.000000000000  0.000000000000
0.000000000000  30.25269875996  0.000000000000
5.105309790737  0.000000000000  8.842656637547

ATOMIC_POSITIONS
Direct

Cu
0.000
64
0.050000000000  0.396659000000  0.050000000000  0  0  0  mag  0.0
0.300000000000  0.396659000000  0.050000000000  0  0  0  mag  0.0
0.550000000000  0.396659000000  0.050000000000  0  0  0  mag  0.0
0.800000000000  0.396659000000  0.050000000000  0  0  0  mag  0.0
0.050000000000  0.396659000000  0.300000000000  0  0  0  mag  0.0
0.300000000000  0.396659000000  0.300000000000  0  0  0  mag  0.0
0.550000000000  0.396659000000  0.300000000000  0  0  0  mag  0.0
0.800000000000  0.396659000000  0.300000000000  0  0  0  mag  0.0
0.050000000000  0.396659000000  0.550000000000  0  0  0  mag  0.0
0.300000000000  0.396659000000  0.550000000000  0  0  0  mag  0.0
0.550000000000  0.396659000000  0.550000000000  0  0  0  mag  0.0
0.800000000000  0.396659000000  0.550000000000  0  0  0  mag  0.0
0.050000000000  0.396659000000  0.800000000000  0  0  0  mag  0.0
0.300000000000  0.396659000000  0.800000000000  0  0  0  mag  0.0
0.550000000000  0.396659000000  0.800000000000  0  0  0  mag  0.0
0.800000000000  0.396659000000  0.800000000000  0  0  0  mag  0.0
0.133333000000  0.465553000000  0.133333000000  0  0  0  mag  0.0
0.383333000000  0.465553000000  0.133333000000  0  0  0  mag  0.0
0.633333000000  0.465553000000  0.133333000000  0  0  0  mag  0.0
0.883333000000  0.465553000000  0.133333000000  0  0  0  mag  0.0
0.133333000000  0.465553000000  0.383333000000  0  0  0  mag  0.0
0.383333000000  0.465553000000  0.383333000000  0  0  0  mag  0.0
0.633333000000  0.465553000000  0.383333000000  0  0  0  mag  0.0
0.883333000000  0.465553000000  0.383333000000  0  0  0  mag  0.0
0.133333000000  0.465553000000  0.633333000000  0  0  0  mag  0.0
0.383333000000  0.465553000000  0.633333000000  0  0  0  mag  0.0
0.633333000000  0.465553000000  0.633333000000  0  0  0  mag  0.0
0.883333000000  0.465553000000  0.633333000000  0  0  0  mag  0.0
0.133333000000  0.465553000000  0.883333000000  0  0  0  mag  0.0
0.383333000000  0.465553000000  0.883333000000  0  0  0  mag  0.0
0.633333000000  0.465553000000  0.883333000000  0  0  0  mag  0.0
0.883333000000  0.465553000000  0.883333000000  0  0  0  mag  0.0
0.966442000000  0.532333000000  0.216910000000  1  1  1  mag  0.0
0.216424000000  0.532327000000  0.216424000000  1  1  1  mag  0.0
0.466521000000  0.532307000000  0.216411000000  1  1  1  mag  0.0
0.716575000000  0.532302000000  0.216859000000  1  1  1  mag  0.0
0.966894000000  0.532233000000  0.466739000000  1  1  1  mag  0.0
0.216411000000  0.532307000000  0.466521000000  1  1  1  mag  0.0
0.466724000000  0.532327000000  0.466724000000  1  1  1  mag  0.0
0.716334000000  0.532230000000  0.466903000000  1  1  1  mag  0.0
0.966886000000  0.532318000000  0.716741000000  1  1  1  mag  0.0
0.216859000000  0.532302000000  0.716575000000  1  1  1  mag  0.0
0.466903000000  0.532230000000  0.716334000000  1  1  1  mag  0.0
0.717039000000  0.532157000000  0.717039000000  1  1  1  mag  0.0
0.966879000000  0.532258000000  0.966879000000  1  1  1  mag  0.0
0.216910000000  0.532333000000  0.966442000000  1  1  1  mag  0.0
0.466739000000  0.532233000000  0.966894000000  1  1  1  mag  0.0
0.716741000000  0.532318000000  0.966886000000  1  1  1  mag  0.0
0.050335000000  0.599539000000  0.050335000000  1  1  1  mag  0.0
0.299927000000  0.599774000000  0.050139000000  1  1  1  mag  0.0
0.550263000000  0.599677000000  0.049835000000  1  1  1  mag  0.0
0.800240000000  0.599581000000  0.050318000000  1  1  1  mag  0.0
0.050139000000  0.599774000000  0.299927000000  1  1  1  mag  0.0
0.299755000000  0.599636000000  0.299755000000  1  1  1  mag  0.0
0.549850000000  0.599623000000  0.299808000000  1  1  1  mag  0.0
0.799562000000  0.599704000000  0.300447000000  1  1  1  mag  0.0
0.049835000000  0.599677000000  0.550263000000  1  1  1  mag  0.0
0.299808000000  0.599623000000  0.549850000000  1  1  1  mag  0.0
0.549910000000  0.599627000000  0.549910000000  1  1  1  mag  0.0
0.799972000000  0.599188000000  0.550188000000  1  1  1  mag  0.0
0.050318000000  0.599581000000  0.800240000000  1  1  1  mag  0.0
0.300447000000  0.599704000000  0.799562000000  1  1  1  mag  0.0
0.550188000000  0.599188000000  0.799972000000  1  1  1  mag  0.0
0.800323000000  0.599681000000  0.800323000000  1  1  1  mag  0.0

N 
0.000
2
0.639005000000  0.712063000000  0.639005000000  1  1  1  mag  0.0
0.701335000000  0.712482000000  0.701335000000  1  1  1  mag  0.0
