ATOMIC_SPECIES
Cu  63.546        Cu_ONCV_PBE-1.0.upf
N   14.007        N_ONCV_PBE-1.0.upf

NUMERICAL_ORBITAL
Cu_gga_8au_100Ry_4s2p2d1f.orb
N_gga_7au_100Ry_2s2p1d.orb

LATTICE_CONSTANT
1.8897261258369282 

LATTICE_VECTORS
10.210622000      0.0000000000      0.0000000000      
5.1053110000      8.8426580000      0.0000000000      
0.0000000000      0.0000000000      30.252703000      

ATOMIC_POSITIONS
Direct

Cu
0.0000000000
64
0.0000000000 0.0000000000 0.3966590000 0 0 0 v 0.0 0.0 0.0 mag 0.0 
0.2500000000 0.0000000000 0.3966590000 0 0 0 v 0.0 0.0 0.0 mag 0.0 
0.5000000000 0.0000000000 0.3966590000 0 0 0 v 0.0 0.0 0.0 mag 0.0 
0.7500000000 0.0000000000 0.3966590000 0 0 0 v 0.0 0.0 0.0 mag 0.0 
0.0000000000 0.2500000000 0.3966590000 0 0 0 v 0.0 0.0 0.0 mag 0.0 
0.2500000000 0.2500000000 0.3966590000 0 0 0 v 0.0 0.0 0.0 mag 0.0 
0.5000000000 0.2500000000 0.3966590000 0 0 0 v 0.0 0.0 0.0 mag 0.0 
0.7500000000 0.2500000000 0.3966590000 0 0 0 v 0.0 0.0 0.0 mag 0.0 
0.0000000000 0.5000000000 0.3966590000 0 0 0 v 0.0 0.0 0.0 mag 0.0 
0.2500000000 0.5000000000 0.3966590000 0 0 0 v 0.0 0.0 0.0 mag 0.0 
0.5000000000 0.5000000000 0.3966590000 0 0 0 v 0.0 0.0 0.0 mag 0.0 
0.7500000000 0.5000000000 0.3966590000 0 0 0 v 0.0 0.0 0.0 mag 0.0 
0.0000000000 0.7500000000 0.3966590000 0 0 0 v 0.0 0.0 0.0 mag 0.0 
0.2500000000 0.7500000000 0.3966590000 0 0 0 v 0.0 0.0 0.0 mag 0.0 
0.5000000000 0.7500000000 0.3966590000 0 0 0 v 0.0 0.0 0.0 mag 0.0 
0.7500000000 0.7500000000 0.3966590000 0 0 0 v 0.0 0.0 0.0 mag 0.0 
0.0833330000 0.0833330000 0.4655530000 0 0 0 v 0.0 0.0 0.0 mag 0.0 
0.3333330000 0.0833330000 0.4655530000 0 0 0 v 0.0 0.0 0.0 mag 0.0 
0.5833330000 0.0833330000 0.4655530000 0 0 0 v 0.0 0.0 0.0 mag 0.0 
0.8333330000 0.0833330000 0.4655530000 0 0 0 v 0.0 0.0 0.0 mag 0.0 
0.0833330000 0.3333330000 0.4655530000 0 0 0 v 0.0 0.0 0.0 mag 0.0 
0.3333330000 0.3333330000 0.4655530000 0 0 0 v 0.0 0.0 0.0 mag 0.0 
0.5833330000 0.3333330000 0.4655530000 0 0 0 v 0.0 0.0 0.0 mag 0.0 
0.8333330000 0.3333330000 0.4655530000 0 0 0 v 0.0 0.0 0.0 mag 0.0 
0.0833330000 0.5833330000 0.4655530000 0 0 0 v 0.0 0.0 0.0 mag 0.0 
0.3333330000 0.5833330000 0.4655530000 0 0 0 v 0.0 0.0 0.0 mag 0.0 
0.5833330000 0.5833330000 0.4655530000 0 0 0 v 0.0 0.0 0.0 mag 0.0 
0.8333330000 0.5833330000 0.4655530000 0 0 0 v 0.0 0.0 0.0 mag 0.0 
0.0833330000 0.8333330000 0.4655530000 0 0 0 v 0.0 0.0 0.0 mag 0.0 
0.3333330000 0.8333330000 0.4655530000 0 0 0 v 0.0 0.0 0.0 mag 0.0 
0.5833330000 0.8333330000 0.4655530000 0 0 0 v 0.0 0.0 0.0 mag 0.0 
0.8333330000 0.8333330000 0.4655530000 0 0 0 v 0.0 0.0 0.0 mag 0.0 
0.9165600000 0.1664680000 0.5337920000 1 1 1 v 0.0 0.0 0.0 mag 0.0 
0.1663980000 0.1663980000 0.5339830000 1 1 1 v 0.0 0.0 0.0 mag 0.0 
0.4164560000 0.1665640000 0.5337570000 1 1 1 v 0.0 0.0 0.0 mag 0.0 
0.6664790000 0.1664440000 0.5337440000 1 1 1 v 0.0 0.0 0.0 mag 0.0 
0.9167120000 0.4160470000 0.5338410000 1 1 1 v 0.0 0.0 0.0 mag 0.0 
0.1665640000 0.4164560000 0.5337570000 1 1 1 v 0.0 0.0 0.0 mag 0.0 
0.4165800000 0.4165800000 0.5338150000 1 1 1 v 0.0 0.0 0.0 mag 0.0 
0.6664900000 0.4164280000 0.5337560000 1 1 1 v 0.0 0.0 0.0 mag 0.0 
0.9164060000 0.6661490000 0.5337790000 1 1 1 v 0.0 0.0 0.0 mag 0.0 
0.1664440000 0.6664790000 0.5337440000 1 1 1 v 0.0 0.0 0.0 mag 0.0 
0.4164280000 0.6664900000 0.5337560000 1 1 1 v 0.0 0.0 0.0 mag 0.0 
0.6663570000 0.6663570000 0.5337800000 1 1 1 v 0.0 0.0 0.0 mag 0.0 
0.9162440000 0.9162440000 0.5336240000 1 1 1 v 0.0 0.0 0.0 mag 0.0 
0.1664680000 0.9165600000 0.5337920000 1 1 1 v 0.0 0.0 0.0 mag 0.0 
0.4160470000 0.9167120000 0.5338410000 1 1 1 v 0.0 0.0 0.0 mag 0.0 
0.6661490000 0.9164060000 0.5337790000 1 1 1 v 0.0 0.0 0.0 mag 0.0 
0.9986090000 0.9986090000 0.6014530000 1 1 1 v 0.0 0.0 0.0 mag 0.0 
0.2492460000 0.9994130000 0.6023240000 1 1 1 v 0.0 0.0 0.0 mag 0.0 
0.4992840000 0.9998270000 0.6017940000 1 1 1 v 0.0 0.0 0.0 mag 0.0 
0.7490820000 0.9995500000 0.6016550000 1 1 1 v 0.0 0.0 0.0 mag 0.0 
0.9994130000 0.2492460000 0.6023240000 1 1 1 v 0.0 0.0 0.0 mag 0.0 
0.2499170000 0.2499170000 0.6018110000 1 1 1 v 0.0 0.0 0.0 mag 0.0 
0.4997660000 0.2497520000 0.6017350000 1 1 1 v 0.0 0.0 0.0 mag 0.0 
0.7496150000 0.2495480000 0.6017170000 1 1 1 v 0.0 0.0 0.0 mag 0.0 
0.9998270000 0.4992840000 0.6017940000 1 1 1 v 0.0 0.0 0.0 mag 0.0 
0.2497520000 0.4997660000 0.6017350000 1 1 1 v 0.0 0.0 0.0 mag 0.0 
0.4997850000 0.4997850000 0.6017770000 1 1 1 v 0.0 0.0 0.0 mag 0.0 
0.7496610000 0.4996030000 0.6017270000 1 1 1 v 0.0 0.0 0.0 mag 0.0 
0.9995500000 0.7490820000 0.6016550000 1 1 1 v 0.0 0.0 0.0 mag 0.0 
0.2495480000 0.7496150000 0.6017170000 1 1 1 v 0.0 0.0 0.0 mag 0.0 
0.4996030000 0.7496610000 0.6017270000 1 1 1 v 0.0 0.0 0.0 mag 0.0 
0.7494940000 0.7494940000 0.6017320000 1 1 1 v 0.0 0.0 0.0 mag 0.0 

N
0.0000000000
2
0.0734240000 0.0734240000 0.6481720000 1 1 1 v 0.0 0.0 0.0 mag 0.0 
0.1689480000 0.1689480000 0.6480380000 1 1 1 v 0.0 0.0 0.0 mag 0.0 

