ATOMIC_SPECIES
H   1.008         H_ONCV_PBE-1.0.upf
Au  196.966569    Au_ONCV_PBE-1.0.upf

NUMERICAL_ORBITAL
H_gga_6au_100Ry_2s1p.orb
Au_gga_7au_100Ry_4s2p2d1f.orb

LATTICE_CONSTANT
1.8897261258369282 

LATTICE_VECTORS
11.535200000      0.0000000000      0.0000000000      
0.0000000000      19.063800000      0.0000000000      
-5.767600000      0.0000000000      9.9897700000      

ATOMIC_POSITIONS
Direct

H
0.0000000000
2
0.5567180000 0.5324050000 0.6867940000 1 1 1 v 0.0 0.0 0.0 mag 0.0 
0.3938320000 0.5325450000 0.5244340000 1 1 1 v 0.0 0.0 0.0 mag 0.0 

Au
0.0000000000
64
0.0400000000 0.1000000000 0.0400000000 0 0 0 v 0.0 0.0 0.0 mag 0.0 
0.2900000000 0.1000000000 0.0400000000 0 0 0 v 0.0 0.0 0.0 mag 0.0 
0.5400000000 0.1000000000 0.0400000000 0 0 0 v 0.0 0.0 0.0 mag 0.0 
0.7900000000 0.1000000000 0.0400000000 0 0 0 v 0.0 0.0 0.0 mag 0.0 
0.0400000000 0.1000000000 0.2900000000 0 0 0 v 0.0 0.0 0.0 mag 0.0 
0.2900000000 0.1000000000 0.2900000000 0 0 0 v 0.0 0.0 0.0 mag 0.0 
0.5400000000 0.1000000000 0.2900000000 0 0 0 v 0.0 0.0 0.0 mag 0.0 
0.7900000000 0.1000000000 0.2900000000 0 0 0 v 0.0 0.0 0.0 mag 0.0 
0.0400000000 0.1000000000 0.5400000000 0 0 0 v 0.0 0.0 0.0 mag 0.0 
0.2900000000 0.1000000000 0.5400000000 0 0 0 v 0.0 0.0 0.0 mag 0.0 
0.5400000000 0.1000000000 0.5400000000 0 0 0 v 0.0 0.0 0.0 mag 0.0 
0.7900000000 0.1000000000 0.5400000000 0 0 0 v 0.0 0.0 0.0 mag 0.0 
0.0400000000 0.1000000000 0.7900000000 0 0 0 v 0.0 0.0 0.0 mag 0.0 
0.2900000000 0.1000000000 0.7900000000 0 0 0 v 0.0 0.0 0.0 mag 0.0 
0.5400000000 0.1000000000 0.7900000000 0 0 0 v 0.0 0.0 0.0 mag 0.0 
0.7900000000 0.1000000000 0.7900000000 0 0 0 v 0.0 0.0 0.0 mag 0.0 
0.1233330000 0.2235120000 0.2066670000 0 0 0 v 0.0 0.0 0.0 mag 0.0 
0.3733330000 0.2235120000 0.2066670000 0 0 0 v 0.0 0.0 0.0 mag 0.0 
0.6233330000 0.2235120000 0.2066670000 0 0 0 v 0.0 0.0 0.0 mag 0.0 
0.8733330000 0.2235120000 0.2066670000 0 0 0 v 0.0 0.0 0.0 mag 0.0 
0.1233330000 0.2235120000 0.4566670000 0 0 0 v 0.0 0.0 0.0 mag 0.0 
0.3733330000 0.2235120000 0.4566670000 0 0 0 v 0.0 0.0 0.0 mag 0.0 
0.6233330000 0.2235120000 0.4566670000 0 0 0 v 0.0 0.0 0.0 mag 0.0 
0.8733330000 0.2235120000 0.4566670000 0 0 0 v 0.0 0.0 0.0 mag 0.0 
0.1233330000 0.2235120000 0.7066670000 0 0 0 v 0.0 0.0 0.0 mag 0.0 
0.3733330000 0.2235120000 0.7066670000 0 0 0 v 0.0 0.0 0.0 mag 0.0 
0.6233330000 0.2235120000 0.7066670000 0 0 0 v 0.0 0.0 0.0 mag 0.0 
0.8733330000 0.2235120000 0.7066670000 0 0 0 v 0.0 0.0 0.0 mag 0.0 
0.1233330000 0.2235120000 0.9566670000 0 0 0 v 0.0 0.0 0.0 mag 0.0 
0.3733330000 0.2235120000 0.9566670000 0 0 0 v 0.0 0.0 0.0 mag 0.0 
0.6233330000 0.2235120000 0.9566670000 0 0 0 v 0.0 0.0 0.0 mag 0.0 
0.8733330000 0.2235120000 0.9566670000 0 0 0 v 0.0 0.0 0.0 mag 0.0 
0.2079490000 0.3463920000 0.1243520000 1 1 1 v 0.0 0.0 0.0 mag 0.0 
0.4562840000 0.3465200000 0.1237880000 1 1 1 v 0.0 0.0 0.0 mag 0.0 
0.7061490000 0.3473690000 0.1239550000 1 1 1 v 0.0 0.0 0.0 mag 0.0 
0.9565660000 0.3472360000 0.1235280000 1 1 1 v 0.0 0.0 0.0 mag 0.0 
0.2059560000 0.3474740000 0.3724690000 1 1 1 v 0.0 0.0 0.0 mag 0.0 
0.4571060000 0.3494990000 0.3776570000 1 1 1 v 0.0 0.0 0.0 mag 0.0 
0.7061500000 0.3469480000 0.3739610000 1 1 1 v 0.0 0.0 0.0 mag 0.0 
0.9561670000 0.3473750000 0.3739690000 1 1 1 v 0.0 0.0 0.0 mag 0.0 
0.2082350000 0.3486270000 0.6224880000 1 1 1 v 0.0 0.0 0.0 mag 0.0 
0.4563180000 0.3486480000 0.6237870000 1 1 1 v 0.0 0.0 0.0 mag 0.0 
0.7024630000 0.3495130000 0.6230160000 1 1 1 v 0.0 0.0 0.0 mag 0.0 
0.9563260000 0.3465310000 0.6238160000 1 1 1 v 0.0 0.0 0.0 mag 0.0 
0.2069480000 0.3460410000 0.8731520000 1 1 1 v 0.0 0.0 0.0 mag 0.0 
0.4575930000 0.3486110000 0.8718770000 1 1 1 v 0.0 0.0 0.0 mag 0.0 
0.7076220000 0.3474630000 0.8741450000 1 1 1 v 0.0 0.0 0.0 mag 0.0 
0.9557490000 0.3464070000 0.8721420000 1 1 1 v 0.0 0.0 0.0 mag 0.0 
0.0406510000 0.4743580000 0.0395410000 1 1 1 v 0.0 0.0 0.0 mag 0.0 
0.2898820000 0.4736750000 0.0398020000 1 1 1 v 0.0 0.0 0.0 mag 0.0 
0.5395040000 0.4737270000 0.0439200000 1 1 1 v 0.0 0.0 0.0 mag 0.0 
0.7928700000 0.4745590000 0.0444560000 1 1 1 v 0.0 0.0 0.0 mag 0.0 
0.0357480000 0.4745600000 0.2873280000 1 1 1 v 0.0 0.0 0.0 mag 0.0 
0.2857940000 0.4746820000 0.2842850000 1 1 1 v 0.0 0.0 0.0 mag 0.0 
0.5389750000 0.4738820000 0.2922390000 1 1 1 v 0.0 0.0 0.0 mag 0.0 
0.7882650000 0.4741600000 0.2918770000 1 1 1 v 0.0 0.0 0.0 mag 0.0 
0.0362690000 0.4737450000 0.5406150000 1 1 1 v 0.0 0.0 0.0 mag 0.0 
0.2782110000 0.4772890000 0.5350470000 1 1 1 v 0.0 0.0 0.0 mag 0.0 
0.5398590000 0.4863690000 0.5401550000 1 1 1 v 0.0 0.0 0.0 mag 0.0 
0.7878840000 0.4738830000 0.5411650000 1 1 1 v 0.0 0.0 0.0 mag 0.0 
0.0403030000 0.4736870000 0.7902080000 1 1 1 v 0.0 0.0 0.0 mag 0.0 
0.2890060000 0.4739930000 0.7911290000 1 1 1 v 0.0 0.0 0.0 mag 0.0 
0.5451390000 0.4772630000 0.8020650000 1 1 1 v 0.0 0.0 0.0 mag 0.0 
0.7958750000 0.4746940000 0.7944080000 1 1 1 v 0.0 0.0 0.0 mag 0.0 

