SYSTEM = FeCHO
#ISYM = 0 # -1 0 2
#SYMPREC=2e-5  # 1e-4 can have chemical symmetry
ISTART = 0       ! 0 = new job, 1 = restart
ISPIN  = 2       ! spin polarisation 1 = no 2 = yes
PREC = Accurate     ! [Low/Medium/High/Accurate]
#MAGMOM = 
#LORBIT = 11 # L-DOS
ENCUT = 450     ! energy cutoff
EDIFF  = 5.0E-6 ! [Global break cond. for the elec. SC-loop] Energy
EDIFFG = -0.05  ! convergence criterion for forces
NELM   =  300 ! max iteraci v SC loop
NELMIN = 4        ! min # iterations in SC loop
NELMDL = -11 # from lasphub.com
ISIF   = 2       ! [Stress tensor, 0 = not, 3 = relax latt+ions] p. 60
#NWRITE = 1       ! how much is written out
LCHARG = .False.  ! write restart charge file
LAECHG = .False.
LWAVE  = .False.  ! write restart wf file
ISMEAR = 1; SIGMA = 0.1  #-5 for accurate total energy and DOS 0 for large cell 1 for metal
NSW = 300       ! max # steps
#LREAL = A    ! aproximace, T zpomaluje, ale presnejsi
IBRION = 1        ! 0 MD 1 Brodyn (opt,TS) 2 CG (opt)  3 damped MD(opt) 5  FC 
#POTIM = 0.3        ! ion step size/ time step (fs) for MD
#NFREE = 2
#IALGO  = 38      ! RMM-DIIS algorithm for electrons (Davidson: 38)
ALGO=Fast

# dipole correction
LDIPOL = .TRUE.
IDIPOL = 3


# from lasphub.com
AMIX = 0.2
AMIX_MAG = 0.6

#NEB
#LCLIMB = .TRUE.
#IMAGES = 8
#IOPT =0
#SPRING = -5

#LASPH = .TRUE.    ! non-spherical contributions. neccessary for vdw
NCORE   = 16       ! adjust to number of processors;  best on berni up to 8 CPUs
#DFT + U
GGA = PE

#LDAU = .TRUE. 
#LDAUTYPE = 2
#LDAUL = -1 -1 -1 2     !-1 no;1 p;2 d;3 f
#LDAUU = 0 0 0 
#LDAUJ = 0 0 0  
#LMAXMIX = 4            !4 d; 6 f
#LHFCALC = .TRUE.

#SMASS = 2
#TEBEG =
#TEEND =

#HFSCREEN = 0.2
#TIME = 0.4
#NELMIN = 5
#AEXX = 0.25
#IVDW = 12
#GGA = BF
#LUSE_VDW = .TRUE.
#Zab_VDW = -1.8867
#LBEEFENS = .TRUE.
#LSCALAPACK=.FALSE.
~
