ATOMIC_SPECIES
C 12.011 C_ONCV_PBE-1.0.upf upf201
O 15.999 O_ONCV_PBE-1.0.upf upf201
Pt 195.085 Pt_ONCV_PBE-1.0.upf upf201

NUMERICAL_ORBITAL
C_gga_7au_100Ry_2s2p1d.orb
O_gga_7au_100Ry_2s2p1d.orb
Pt_gga_7au_100Ry_4s2p2d1f.orb

LATTICE_CONSTANT
1.889726

LATTICE_VECTORS
   11.1873990198     0.0000000000     0.0000000000 #latvec1
    0.0000000000    18.8508982273     0.0000000000 #latvec2
   -5.5936995315     0.0000000000     9.6885711886 #latvec3

ATOMIC_POSITIONS
Direct

C #label
0 #magnetism
1 #number of atoms
    0.3816060000     0.4023390000     0.6995890000 m  1  1  1

O #label
0 #magnetism
1 #number of atoms
    0.3840700000     0.4246160000     0.4292570000 m  1  1  1

Pt #label
0 #magnetism
64 #number of atoms
    0.0445520000     0.0000000000     0.0222760000 m  0  0  0
    0.2945520000     0.0000000000     0.0222760000 m  0  0  0
    0.5445520000     0.0000000000     0.0222760000 m  0  0  0
    0.7945520000     0.0000000000     0.0222760000 m  0  0  0
    0.0445520000     0.0000000000     0.2722760000 m  0  0  0
    0.2945520000     0.0000000000     0.2722760000 m  0  0  0
    0.5445520000     0.0000000000     0.2722760000 m  0  0  0
    0.7945520000     0.0000000000     0.2722760000 m  0  0  0
    0.2945520000     0.0000000000     0.5222760000 m  0  0  0
    0.5445520000     0.0000000000     0.5222760000 m  0  0  0
    0.7945520000     0.0000000000     0.5222760000 m  0  0  0
    0.0445520000     0.0000000000     0.5222760000 m  0  0  0
    0.0445520000     0.0000000000     0.7722760000 m  0  0  0
    0.2945520000     0.0000000000     0.7722760000 m  0  0  0
    0.5445520000     0.0000000000     0.7722760000 m  0  0  0
    0.7945520000     0.0000000000     0.7722760000 m  0  0  0
    0.8780500000     0.1200480000     0.1893580000 m  1  1  1
    0.8782680000     0.1202920000     0.4393230000 m  1  1  1
    0.8781670000     0.1202100000     0.9393650000 m  1  1  1
    0.6274500000     0.1203580000     0.1886560000 m  1  1  1
    0.3779260000     0.1202640000     0.1894270000 m  1  1  1
    0.1286410000     0.1205780000     0.1895850000 m  1  1  1
    0.8778590000     0.1207090000     0.6887640000 m  1  1  1
    0.1278830000     0.1205990000     0.9393530000 m  1  1  1
    0.6273760000     0.1207060000     0.4394050000 m  1  1  1
    0.3775840000     0.1207170000     0.9381420000 m  1  1  1
    0.1295290000     0.1207980000     0.4401150000 m  1  1  1
    0.6270050000     0.1208550000     0.9375560000 m  1  1  1
    0.6274100000     0.1210880000     0.6888280000 m  1  1  1
    0.1288840000     0.1212380000     0.6892450000 m  1  1  1
    0.3778840000     0.1216000000     0.4397350000 m  1  1  1
    0.3778020000     0.1226520000     0.6884450000 m  1  1  1
    0.9615730000     0.2376730000     0.8559230000 m  1  1  1
    0.9607630000     0.2377260000     0.1053500000 m  1  1  1
    0.9613290000     0.2377950000     0.3560710000 m  1  1  1
    0.4607410000     0.2382530000     0.1052210000 m  1  1  1
    0.7109290000     0.2383700000     0.1050460000 m  1  1  1
    0.7114720000     0.2383710000     0.3560950000 m  1  1  1
    0.9612090000     0.2384090000     0.6061550000 m  1  1  1
    0.2124390000     0.2395690000     0.1086300000 m  1  1  1
    0.4610340000     0.2397340000     0.3565460000 m  1  1  1
    0.2113570000     0.2397640000     0.8548830000 m  1  1  1
    0.7098420000     0.2400050000     0.8547440000 m  1  1  1
    0.7089100000     0.2405400000     0.6046750000 m  1  1  1
    0.2118910000     0.2411010000     0.3578350000 m  1  1  1
    0.4602180000     0.2413820000     0.8545130000 m  1  1  1
    0.4611950000     0.2427320000     0.6060320000 m  1  1  1
    0.2127030000     0.2431290000     0.6051790000 m  1  1  1
    0.0369250000     0.3583100000     0.2672660000 m  1  1  1
    0.5466090000     0.3583160000     0.2710380000 m  1  1  1
    0.0362790000     0.3586380000     0.5193470000 m  1  1  1
    0.5467600000     0.3589690000     0.0262900000 m  1  1  1
    0.0417010000     0.3592890000     0.0199970000 m  1  1  1
    0.7932770000     0.3593240000     0.2714200000 m  1  1  1
    0.2935430000     0.3597680000     0.0235820000 m  1  1  1
    0.8011800000     0.3599080000     0.7757630000 m  1  1  1
    0.7972490000     0.3599940000     0.0251180000 m  1  1  1
    0.7966810000     0.3601030000     0.5219170000 m  1  1  1
    0.0406230000     0.3600990000     0.7721780000 m  1  1  1
    0.2882600000     0.3609090000     0.2587360000 m  1  1  1
    0.5590010000     0.3626110000     0.5265560000 m  1  1  1
    0.5626800000     0.3649280000     0.7823250000 m  1  1  1
    0.2844400000     0.3655500000     0.7837670000 m  1  1  1
    0.2800800000     0.3685400000     0.5122910000 m  1  1  1
