ATOMIC_SPECIES
H    1.008  H_ONCV_PBE-1.0.upf
Au  196.967  Au_ONCV_PBE-1.0.upf

NUMERICAL_ORBITAL
H_gga_6au_100Ry_2s1p.orb
Au_gga_7au_100Ry_4s2p2d1f.orb

LATTICE_CONSTANT
1.889726

LATTICE_VECTORS
11.53519704724  0.000000000000  0.000000000000
0.000000000000  19.06379511685  0.000000000000
-5.76759852165  0.000000000000  9.989773679445

ATOMIC_POSITIONS
Direct

H 
0.000
2
0.628359956000  0.516838352000  0.713334836900  1  1  1  mag  0.0
0.368524142500  0.516685162900  0.453651436600  1  1  1  mag  0.0

Au
0.000
64
0.040000000000  0.100000000000  0.040000000000  0  0  0  mag  0.0
0.290000000000  0.100000000000  0.040000000000  0  0  0  mag  0.0
0.540000000000  0.100000000000  0.040000000000  0  0  0  mag  0.0
0.790000000000  0.100000000000  0.040000000000  0  0  0  mag  0.0
0.040000000000  0.100000000000  0.290000000000  0  0  0  mag  0.0
0.290000000000  0.100000000000  0.290000000000  0  0  0  mag  0.0
0.540000000000  0.100000000000  0.290000000000  0  0  0  mag  0.0
0.790000000000  0.100000000000  0.290000000000  0  0  0  mag  0.0
0.040000000000  0.100000000000  0.540000000000  0  0  0  mag  0.0
0.290000000000  0.100000000000  0.540000000000  0  0  0  mag  0.0
0.540000000000  0.100000000000  0.540000000000  0  0  0  mag  0.0
0.790000000000  0.100000000000  0.540000000000  0  0  0  mag  0.0
0.040000000000  0.100000000000  0.790000000000  0  0  0  mag  0.0
0.290000000000  0.100000000000  0.790000000000  0  0  0  mag  0.0
0.540000000000  0.100000000000  0.790000000000  0  0  0  mag  0.0
0.790000000000  0.100000000000  0.790000000000  0  0  0  mag  0.0
0.123333000000  0.223512000000  0.206667000000  0  0  0  mag  0.0
0.373333000000  0.223512000000  0.206667000000  0  0  0  mag  0.0
0.623333000000  0.223512000000  0.206667000000  0  0  0  mag  0.0
0.873333000000  0.223512000000  0.206667000000  0  0  0  mag  0.0
0.123333000000  0.223512000000  0.456667000000  0  0  0  mag  0.0
0.373333000000  0.223512000000  0.456667000000  0  0  0  mag  0.0
0.623333000000  0.223512000000  0.456667000000  0  0  0  mag  0.0
0.873333000000  0.223512000000  0.456667000000  0  0  0  mag  0.0
0.123333000000  0.223512000000  0.706667000000  0  0  0  mag  0.0
0.373333000000  0.223512000000  0.706667000000  0  0  0  mag  0.0
0.623333000000  0.223512000000  0.706667000000  0  0  0  mag  0.0
0.873333000000  0.223512000000  0.706667000000  0  0  0  mag  0.0
0.123333000000  0.223512000000  0.956667000000  0  0  0  mag  0.0
0.373333000000  0.223512000000  0.956667000000  0  0  0  mag  0.0
0.623333000000  0.223512000000  0.956667000000  0  0  0  mag  0.0
0.873333000000  0.223512000000  0.956667000000  0  0  0  mag  0.0
0.209034203500  0.347175202100  0.126057318800  1  1  1  mag  0.0
0.455202949800  0.346171901900  0.122280995200  1  1  1  mag  0.0
0.706160063800  0.347013587200  0.123487001900  1  1  1  mag  0.0
0.957209539900  0.346893991300  0.122735633600  1  1  1  mag  0.0
0.206522254200  0.347308178600  0.372856175800  1  1  1  mag  0.0
0.457619410000  0.348076409700  0.376356580700  1  1  1  mag  0.0
0.707205033700  0.346860681800  0.372826930200  1  1  1  mag  0.0
0.956479582800  0.347025160000  0.373805817600  1  1  1  mag  0.0
0.207397916000  0.347649888700  0.622491936300  1  1  1  mag  0.0
0.456884835700  0.348190576500  0.623242784600  1  1  1  mag  0.0
0.704056051400  0.348079471600  0.622661484000  1  1  1  mag  0.0
0.957859264400  0.346185761300  0.624860171700  1  1  1  mag  0.0
0.206408801500  0.345827391700  0.873751174800  1  1  1  mag  0.0
0.457565676300  0.347667220800  0.872585973800  1  1  1  mag  0.0
0.707184546400  0.347278810800  0.873424143600  1  1  1  mag  0.0
0.954440162600  0.347219708100  0.871366788900  1  1  1  mag  0.0
0.041526511200  0.473269091300  0.039833749500  1  1  1  mag  0.0
0.289810697200  0.473506459900  0.039236547100  1  1  1  mag  0.0
0.538964366000  0.474002221500  0.041229184700  1  1  1  mag  0.0
0.791384005000  0.472605909200  0.042279506700  1  1  1  mag  0.0
0.037992826900  0.472688262700  0.288915626600  1  1  1  mag  0.0
0.286388051300  0.477500614700  0.282921379200  1  1  1  mag  0.0
0.540903135400  0.471860965400  0.288006191300  1  1  1  mag  0.0
0.790012321800  0.474771405500  0.289972479600  1  1  1  mag  0.0
0.039116099200  0.473983025600  0.541040894800  1  1  1  mag  0.0
0.284865495500  0.475465585400  0.542245444900  1  1  1  mag  0.0
0.545103986600  0.480497354700  0.536596919600  1  1  1  mag  0.0
0.792758576900  0.471805893600  0.539478553100  1  1  1  mag  0.0
0.041585153600  0.473450848800  0.790649125600  1  1  1  mag  0.0
0.288977257300  0.473405220700  0.791426007400  1  1  1  mag  0.0
0.538460871500  0.475462127300  0.795680423700  1  1  1  mag  0.0
0.798532167600  0.477460698000  0.794683923400  1  1  1  mag  0.0
