ATOMIC_SPECIES
Cu  63.546        Cu_ONCV_PBE-1.0.upf
N   14.007        N_ONCV_PBE-1.0.upf

NUMERICAL_ORBITAL
Cu_gga_8au_100Ry_4s2p2d1f.orb
N_gga_7au_100Ry_2s2p1d.orb

LATTICE_CONSTANT
1.8897261258369282 

LATTICE_VECTORS
10.210600000      0.0000000000      0.0000000000      
0.0000000000      30.252700000      0.0000000000      
5.1053100000      0.0000000000      8.8426600000      

ATOMIC_POSITIONS
Direct

Cu
0.0000000000
64
0.0500000000 0.3966590000 0.0500000000 0 0 0 v 0.0 0.0 0.0 mag 0.0 
0.3000000000 0.3966590000 0.0500000000 0 0 0 v 0.0 0.0 0.0 mag 0.0 
0.5500000000 0.3966590000 0.0500000000 0 0 0 v 0.0 0.0 0.0 mag 0.0 
0.8000000000 0.3966590000 0.0500000000 0 0 0 v 0.0 0.0 0.0 mag 0.0 
0.0500000000 0.3966590000 0.3000000000 0 0 0 v 0.0 0.0 0.0 mag 0.0 
0.3000000000 0.3966590000 0.3000000000 0 0 0 v 0.0 0.0 0.0 mag 0.0 
0.5500000000 0.3966590000 0.3000000000 0 0 0 v 0.0 0.0 0.0 mag 0.0 
0.8000000000 0.3966590000 0.3000000000 0 0 0 v 0.0 0.0 0.0 mag 0.0 
0.0500000000 0.3966590000 0.5500000000 0 0 0 v 0.0 0.0 0.0 mag 0.0 
0.3000000000 0.3966590000 0.5500000000 0 0 0 v 0.0 0.0 0.0 mag 0.0 
0.5500000000 0.3966590000 0.5500000000 0 0 0 v 0.0 0.0 0.0 mag 0.0 
0.8000000000 0.3966590000 0.5500000000 0 0 0 v 0.0 0.0 0.0 mag 0.0 
0.0500000000 0.3966590000 0.8000000000 0 0 0 v 0.0 0.0 0.0 mag 0.0 
0.3000000000 0.3966590000 0.8000000000 0 0 0 v 0.0 0.0 0.0 mag 0.0 
0.5500000000 0.3966590000 0.8000000000 0 0 0 v 0.0 0.0 0.0 mag 0.0 
0.8000000000 0.3966590000 0.8000000000 0 0 0 v 0.0 0.0 0.0 mag 0.0 
0.1333330000 0.4655530000 0.1333330000 0 0 0 v 0.0 0.0 0.0 mag 0.0 
0.3833330000 0.4655530000 0.1333330000 0 0 0 v 0.0 0.0 0.0 mag 0.0 
0.6333330000 0.4655530000 0.1333330000 0 0 0 v 0.0 0.0 0.0 mag 0.0 
0.8833330000 0.4655530000 0.1333330000 0 0 0 v 0.0 0.0 0.0 mag 0.0 
0.1333330000 0.4655530000 0.3833330000 0 0 0 v 0.0 0.0 0.0 mag 0.0 
0.3833330000 0.4655530000 0.3833330000 0 0 0 v 0.0 0.0 0.0 mag 0.0 
0.6333330000 0.4655530000 0.3833330000 0 0 0 v 0.0 0.0 0.0 mag 0.0 
0.8833330000 0.4655530000 0.3833330000 0 0 0 v 0.0 0.0 0.0 mag 0.0 
0.1333330000 0.4655530000 0.6333330000 0 0 0 v 0.0 0.0 0.0 mag 0.0 
0.3833330000 0.4655530000 0.6333330000 0 0 0 v 0.0 0.0 0.0 mag 0.0 
0.6333330000 0.4655530000 0.6333330000 0 0 0 v 0.0 0.0 0.0 mag 0.0 
0.8833330000 0.4655530000 0.6333330000 0 0 0 v 0.0 0.0 0.0 mag 0.0 
0.1333330000 0.4655530000 0.8833330000 0 0 0 v 0.0 0.0 0.0 mag 0.0 
0.3833330000 0.4655530000 0.8833330000 0 0 0 v 0.0 0.0 0.0 mag 0.0 
0.6333330000 0.4655530000 0.8833330000 0 0 0 v 0.0 0.0 0.0 mag 0.0 
0.8833330000 0.4655530000 0.8833330000 0 0 0 v 0.0 0.0 0.0 mag 0.0 
0.9665000000 0.5323510000 0.2163560000 1 1 1 v 0.0 0.0 0.0 mag 0.0 
0.2187940000 0.5319900000 0.2155500000 1 1 1 v 0.0 0.0 0.0 mag 0.0 
0.4655290000 0.5320670000 0.2183010000 1 1 1 v 0.0 0.0 0.0 mag 0.0 
0.7150000000 0.5319920000 0.2155560000 1 1 1 v 0.0 0.0 0.0 mag 0.0 
0.9695640000 0.5317240000 0.4649100000 1 1 1 v 0.0 0.0 0.0 mag 0.0 
0.2162410000 0.5325510000 0.4676590000 1 1 1 v 0.0 0.0 0.0 mag 0.0 
0.4654320000 0.5325590000 0.4676840000 1 1 1 v 0.0 0.0 0.0 mag 0.0 
0.7148480000 0.5317120000 0.4649320000 1 1 1 v 0.0 0.0 0.0 mag 0.0 
0.9657760000 0.5328470000 0.7161290000 1 1 1 v 0.0 0.0 0.0 mag 0.0 
0.2161210000 0.5323210000 0.7171090000 1 1 1 v 0.0 0.0 0.0 mag 0.0 
0.4674140000 0.5328400000 0.7161500000 1 1 1 v 0.0 0.0 0.0 mag 0.0 
0.7170570000 0.5327420000 0.7152480000 1 1 1 v 0.0 0.0 0.0 mag 0.0 
0.9660590000 0.5324410000 0.9669040000 1 1 1 v 0.0 0.0 0.0 mag 0.0 
0.2163810000 0.5324430000 0.9669230000 1 1 1 v 0.0 0.0 0.0 mag 0.0 
0.4679470000 0.5325280000 0.9654860000 1 1 1 v 0.0 0.0 0.0 mag 0.0 
0.7159230000 0.5325400000 0.9654680000 1 1 1 v 0.0 0.0 0.0 mag 0.0 
0.0503910000 0.5999310000 0.0480600000 1 1 1 v 0.0 0.0 0.0 mag 0.0 
0.2997360000 0.5996980000 0.0502760000 1 1 1 v 0.0 0.0 0.0 mag 0.0 
0.5470370000 0.5993300000 0.0547890000 1 1 1 v 0.0 0.0 0.0 mag 0.0 
0.7988940000 0.5996980000 0.0502300000 1 1 1 v 0.0 0.0 0.0 mag 0.0 
0.0562490000 0.5992040000 0.2921270000 1 1 1 v 0.0 0.0 0.0 mag 0.0 
0.2992820000 0.5998090000 0.3014500000 1 1 1 v 0.0 0.0 0.0 mag 0.0 
0.5481480000 0.5998120000 0.3014360000 1 1 1 v 0.0 0.0 0.0 mag 0.0 
0.8005330000 0.5991990000 0.2921380000 1 1 1 v 0.0 0.0 0.0 mag 0.0 
0.0519940000 0.6000750000 0.5479530000 1 1 1 v 0.0 0.0 0.0 mag 0.0 
0.2988990000 0.6000420000 0.5510240000 1 1 1 v 0.0 0.0 0.0 mag 0.0 
0.5489360000 0.6000750000 0.5479590000 1 1 1 v 0.0 0.0 0.0 mag 0.0 
0.8099140000 0.5958140000 0.5291940000 1 1 1 v 0.0 0.0 0.0 mag 0.0 
0.0506530000 0.5997390000 0.8003150000 1 1 1 v 0.0 0.0 0.0 mag 0.0 
0.2978400000 0.5997400000 0.8003320000 1 1 1 v 0.0 0.0 0.0 mag 0.0 
0.5425700000 0.6000060000 0.8059510000 1 1 1 v 0.0 0.0 0.0 mag 0.0 
0.8003090000 0.6000430000 0.8058570000 1 1 1 v 0.0 0.0 0.0 mag 0.0 

N
0.0000000000
2
0.6865270000 0.6537330000 0.6606570000 1 1 1 v 0.0 0.0 0.0 mag 0.0 
0.8003690000 0.6537200000 0.6609430000 1 1 1 v 0.0 0.0 0.0 mag 0.0 

