ATOMIC_SPECIES
H   1.008         H_ONCV_PBE-1.0.upf
Au  196.966569    Au_ONCV_PBE-1.0.upf

NUMERICAL_ORBITAL
H_gga_6au_100Ry_2s1p.orb
Au_gga_7au_100Ry_4s2p2d1f.orb

LATTICE_CONSTANT
1.8897261258369282 

LATTICE_VECTORS
11.535200000      0.0000000000      0.0000000000      
0.0000000000      19.063800000      0.0000000000      
-5.767600000      0.0000000000      9.9897700000      

ATOMIC_POSITIONS
Direct

H
0.0000000000
2
0.5158450000 0.5365740000 0.6630100000 1 1 1 v 0.0 0.0 0.0 mag 0.0 
0.4171470000 0.5366840000 0.5650830000 1 1 1 v 0.0 0.0 0.0 mag 0.0 

Au
0.0000000000
64
0.0400000000 0.1000000000 0.0400000000 0 0 0 v 0.0 0.0 0.0 mag 0.0 
0.2900000000 0.1000000000 0.0400000000 0 0 0 v 0.0 0.0 0.0 mag 0.0 
0.5400000000 0.1000000000 0.0400000000 0 0 0 v 0.0 0.0 0.0 mag 0.0 
0.7900000000 0.1000000000 0.0400000000 0 0 0 v 0.0 0.0 0.0 mag 0.0 
0.0400000000 0.1000000000 0.2900000000 0 0 0 v 0.0 0.0 0.0 mag 0.0 
0.2900000000 0.1000000000 0.2900000000 0 0 0 v 0.0 0.0 0.0 mag 0.0 
0.5400000000 0.1000000000 0.2900000000 0 0 0 v 0.0 0.0 0.0 mag 0.0 
0.7900000000 0.1000000000 0.2900000000 0 0 0 v 0.0 0.0 0.0 mag 0.0 
0.0400000000 0.1000000000 0.5400000000 0 0 0 v 0.0 0.0 0.0 mag 0.0 
0.2900000000 0.1000000000 0.5400000000 0 0 0 v 0.0 0.0 0.0 mag 0.0 
0.5400000000 0.1000000000 0.5400000000 0 0 0 v 0.0 0.0 0.0 mag 0.0 
0.7900000000 0.1000000000 0.5400000000 0 0 0 v 0.0 0.0 0.0 mag 0.0 
0.0400000000 0.1000000000 0.7900000000 0 0 0 v 0.0 0.0 0.0 mag 0.0 
0.2900000000 0.1000000000 0.7900000000 0 0 0 v 0.0 0.0 0.0 mag 0.0 
0.5400000000 0.1000000000 0.7900000000 0 0 0 v 0.0 0.0 0.0 mag 0.0 
0.7900000000 0.1000000000 0.7900000000 0 0 0 v 0.0 0.0 0.0 mag 0.0 
0.1233330000 0.2235120000 0.2066670000 0 0 0 v 0.0 0.0 0.0 mag 0.0 
0.3733330000 0.2235120000 0.2066670000 0 0 0 v 0.0 0.0 0.0 mag 0.0 
0.6233330000 0.2235120000 0.2066670000 0 0 0 v 0.0 0.0 0.0 mag 0.0 
0.8733330000 0.2235120000 0.2066670000 0 0 0 v 0.0 0.0 0.0 mag 0.0 
0.1233330000 0.2235120000 0.4566670000 0 0 0 v 0.0 0.0 0.0 mag 0.0 
0.3733330000 0.2235120000 0.4566670000 0 0 0 v 0.0 0.0 0.0 mag 0.0 
0.6233330000 0.2235120000 0.4566670000 0 0 0 v 0.0 0.0 0.0 mag 0.0 
0.8733330000 0.2235120000 0.4566670000 0 0 0 v 0.0 0.0 0.0 mag 0.0 
0.1233330000 0.2235120000 0.7066670000 0 0 0 v 0.0 0.0 0.0 mag 0.0 
0.3733330000 0.2235120000 0.7066670000 0 0 0 v 0.0 0.0 0.0 mag 0.0 
0.6233330000 0.2235120000 0.7066670000 0 0 0 v 0.0 0.0 0.0 mag 0.0 
0.8733330000 0.2235120000 0.7066670000 0 0 0 v 0.0 0.0 0.0 mag 0.0 
0.1233330000 0.2235120000 0.9566670000 0 0 0 v 0.0 0.0 0.0 mag 0.0 
0.3733330000 0.2235120000 0.9566670000 0 0 0 v 0.0 0.0 0.0 mag 0.0 
0.6233330000 0.2235120000 0.9566670000 0 0 0 v 0.0 0.0 0.0 mag 0.0 
0.8733330000 0.2235120000 0.9566670000 0 0 0 v 0.0 0.0 0.0 mag 0.0 
0.2073850000 0.3462410000 0.1232630000 1 1 1 v 0.0 0.0 0.0 mag 0.0 
0.4572420000 0.3467350000 0.1236000000 1 1 1 v 0.0 0.0 0.0 mag 0.0 
0.7065790000 0.3473540000 0.1237730000 1 1 1 v 0.0 0.0 0.0 mag 0.0 
0.9565640000 0.3471410000 0.1236160000 1 1 1 v 0.0 0.0 0.0 mag 0.0 
0.2069960000 0.3478060000 0.3729160000 1 1 1 v 0.0 0.0 0.0 mag 0.0 
0.4565260000 0.3491250000 0.3763780000 1 1 1 v 0.0 0.0 0.0 mag 0.0 
0.7060880000 0.3468810000 0.3740780000 1 1 1 v 0.0 0.0 0.0 mag 0.0 
0.9563900000 0.3473600000 0.3735750000 1 1 1 v 0.0 0.0 0.0 mag 0.0 
0.2089160000 0.3486330000 0.6225280000 1 1 1 v 0.0 0.0 0.0 mag 0.0 
0.4566980000 0.3491400000 0.6235150000 1 1 1 v 0.0 0.0 0.0 mag 0.0 
0.7038870000 0.3491060000 0.6236900000 1 1 1 v 0.0 0.0 0.0 mag 0.0 
0.9565920000 0.3467460000 0.6229090000 1 1 1 v 0.0 0.0 0.0 mag 0.0 
0.2075840000 0.3461450000 0.8725860000 1 1 1 v 0.0 0.0 0.0 mag 0.0 
0.4576390000 0.3486150000 0.8712620000 1 1 1 v 0.0 0.0 0.0 mag 0.0 
0.7072940000 0.3477940000 0.8731860000 1 1 1 v 0.0 0.0 0.0 mag 0.0 
0.9569960000 0.3462550000 0.8728210000 1 1 1 v 0.0 0.0 0.0 mag 0.0 
0.0414380000 0.4741640000 0.0389340000 1 1 1 v 0.0 0.0 0.0 mag 0.0 
0.2904820000 0.4735530000 0.0387660000 1 1 1 v 0.0 0.0 0.0 mag 0.0 
0.5400460000 0.4742340000 0.0431590000 1 1 1 v 0.0 0.0 0.0 mag 0.0 
0.7941900000 0.4750640000 0.0444630000 1 1 1 v 0.0 0.0 0.0 mag 0.0 
0.0358370000 0.4750780000 0.2861160000 1 1 1 v 0.0 0.0 0.0 mag 0.0 
0.2868400000 0.4746990000 0.2847840000 1 1 1 v 0.0 0.0 0.0 mag 0.0 
0.5392970000 0.4743550000 0.2899390000 1 1 1 v 0.0 0.0 0.0 mag 0.0 
0.7889690000 0.4738480000 0.2912800000 1 1 1 v 0.0 0.0 0.0 mag 0.0 
0.0371020000 0.4742600000 0.5402320000 1 1 1 v 0.0 0.0 0.0 mag 0.0 
0.2775020000 0.4777580000 0.5306320000 1 1 1 v 0.0 0.0 0.0 mag 0.0 
0.5432760000 0.4816540000 0.5371430000 1 1 1 v 0.0 0.0 0.0 mag 0.0 
0.7903930000 0.4743700000 0.5409780000 1 1 1 v 0.0 0.0 0.0 mag 0.0 
0.0415910000 0.4735710000 0.7898320000 1 1 1 v 0.0 0.0 0.0 mag 0.0 
0.2910050000 0.4743190000 0.7893400000 1 1 1 v 0.0 0.0 0.0 mag 0.0 
0.5497470000 0.4777090000 0.8028520000 1 1 1 v 0.0 0.0 0.0 mag 0.0 
0.7956290000 0.4746980000 0.7935170000 1 1 1 v 0.0 0.0 0.0 mag 0.0 

