ATOMIC_SPECIES
C   12.011  C_ONCV_PBE-1.0.upf
Fe   55.845  Fe_ONCV_PBE-1.0.upf
K   39.098  K_ONCV_PBE-1.0.upf

NUMERICAL_ORBITAL
C_gga_7au_100Ry_2s2p1d.orb
Fe_gga_8au_100Ry_4s2p2d1f.orb
K_gga_9au_100Ry_4s2p1d.orb

LATTICE_CONSTANT
1.889726

LATTICE_VECTORS
9.979800000000  0.000000000000  0.000000000000
-0.76400300000  12.66177100000  0.000000000000
0.000000000000  0.000000000000  27.54040000000

ATOMIC_POSITIONS
Direct

C 
-0.500
36
0.474698658862  0.734390017279  0.273339844260  1  1  1  
0.250541920358  0.337727346769  0.262862565355  1  1  1  
0.413493436194  0.941989449915  0.262015591712  1  1  1  
0.013340457286  0.534484046529  0.230570821922  1  1  1  
0.180322434587  0.127233682116  0.224876032758  1  1  1  
0.270551120770  0.655862884149  0.205064759803  1  1  1  
0.442626667005  0.248505425825  0.192910543944  1  1  1  
0.033604990599  0.854136076677  0.154968565260  1  1  1  
0.209487107410  0.451273596223  0.145973724131  1  1  1  
0.294548181108  0.974453248867  0.132358998521  1  1  1  
0.468540000000  0.568980000000  0.122034000000  0  0  0  
0.061885000000  0.176160000000  0.085036000000  0  0  0  
0.233720000000  0.768360000000  0.072877000000  0  0  0  
0.323335000000  0.298390000000  0.053386000000  0  0  0  
0.491475000000  0.891710000000  0.046768000000  0  0  0  
0.090805000000  0.484140000000  0.016695000000  0  0  0  
0.253665000000  0.089200000000  0.014833000000  0  0  0  
0.029445000000  0.690170000000  0.006746000000  0  0  0  
0.975677448327  0.734290032129  0.272770961406  1  1  1  
0.751562954699  0.337347616523  0.262880551516  1  1  1  
0.913673984410  0.941554379378  0.261915211783  1  1  1  
0.512889171944  0.534576523049  0.231057158433  1  1  1  
0.680654717547  0.127133636763  0.225082794439  1  1  1  
0.770323247923  0.655821234328  0.205443800724  1  1  1  
0.942038149474  0.248778568131  0.192491233053  1  1  1  
0.533634795418  0.854202893052  0.154967301475  1  1  1  
0.709317328794  0.451286803078  0.145804848905  1  1  1  
0.794588087358  0.974518443731  0.132328842927  1  1  1  
0.968540000000  0.568980000000  0.122034000000  0  0  0  
0.561885000000  0.176160000000  0.085036000000  0  0  0  
0.733720000000  0.768360000000  0.072877000000  0  0  0  
0.823335000000  0.298390000000  0.053386000000  0  0  0  
0.991475000000  0.891710000000  0.046768000000  0  0  0  
0.590805000000  0.484140000000  0.016695000000  0  0  0  
0.753665000000  0.089200000000  0.014833000000  0  0  0  
0.529445000000  0.690170000000  0.006746000000  0  0  0  

Fe
2.000
80
0.372835161167  0.612831423790  0.259715536847  1  1  1  
0.314718420554  0.807190994891  0.258408769275  1  1  1  
0.252165605199  0.006240988411  0.255811319224  1  1  1  
0.423846879874  0.405919695416  0.252382314737  1  1  1  
0.066658250088  0.861716382512  0.252342119242  1  1  1  
0.336042026886  0.212029284900  0.251044422510  1  1  1  
0.121824462237  0.662097952461  0.251361027365  1  1  1  
0.180578705412  0.465481464108  0.242494681477  1  1  1  
0.091568330559  0.261612079030  0.243175073923  1  1  1  
0.002942620913  0.068156494300  0.242376892484  1  1  1  
0.395977429319  0.927861702092  0.188498694572  1  1  1  
0.446640898683  0.728087120708  0.184008465952  1  1  1  
0.279828059759  0.333570807462  0.183073559068  1  1  1  
0.362551208629  0.533631717235  0.179409162576  1  1  1  
0.144003920870  0.981350024817  0.178045985812  1  1  1  
0.332043146481  0.117134304385  0.175837425470  1  1  1  
0.199979564737  0.781134320638  0.174684822480  1  1  1  
0.117471886602  0.577541565601  0.171061133473  1  1  1  
0.032604672724  0.383789367479  0.169765181301  1  1  1  
0.089472251888  0.173812186561  0.164116260951  1  1  1  
0.413690000000  0.250300000000  0.113754000000  0  0  0  
0.470495000000  0.040420000000  0.106302000000  0  0  0  
0.385750000000  0.849260000000  0.106074000000  0  0  0  
0.303320000000  0.644910000000  0.104954000000  0  0  0  
0.170965000000  0.307220000000  0.102030000000  0  0  0  
0.359120000000  0.442050000000  0.100183000000  0  0  0  
0.142015000000  0.892340000000  0.098008000000  0  0  0  
0.056750000000  0.698360000000  0.095883000000  0  0  0  
0.224665000000  0.091190000000  0.093857000000  0  0  0  
0.108215000000  0.496030000000  0.089800000000  0  0  0  
0.000965000000  0.357480000000  0.035600000000  0  0  0  
0.412835000000  0.164590000000  0.034488000000  0  0  0  
0.324735000000  0.960470000000  0.032020000000  0  0  0  
0.437865000000  0.564030000000  0.028291000000  0  0  0  
0.383235000000  0.762780000000  0.027142000000  0  0  0  
0.167870000000  0.214030000000  0.026643000000  0  0  0  
0.081110000000  0.019460000000  0.024240000000  0  0  0  
0.189555000000  0.618540000000  0.021965000000  0  0  0  
0.252150000000  0.419440000000  0.021922000000  0  0  0  
0.131805000000  0.812570000000  0.018392000000  0  0  0  
0.873557241913  0.612295424704  0.259764986035  1  1  1  
0.815008022036  0.806678647631  0.257934574243  1  1  1  
0.752351343122  0.005813545793  0.255733021662  1  1  1  
0.923812460182  0.405847559573  0.251807228052  1  1  1  
0.566261907077  0.861665601715  0.252520487790  1  1  1  
0.836721954801  0.212182167941  0.250926323772  1  1  1  
0.620970912146  0.662724881098  0.251307405363  1  1  1  
0.680367085289  0.465858104973  0.245367263570  1  1  1  
0.592137250315  0.261298026110  0.243305725232  1  1  1  
0.502968643619  0.068264014632  0.242384031569  1  1  1  
0.895992455952  0.927834502258  0.188428909507  1  1  1  
0.946811028813  0.728042814223  0.184201563786  1  1  1  
0.779094706028  0.334087001373  0.183267692295  1  1  1  
0.861873586166  0.533605137572  0.179475990309  1  1  1  
0.643970700772  0.981214445488  0.178105343816  1  1  1  
0.831986887630  0.116993843531  0.175797973527  1  1  1  
0.699982994295  0.780748581617  0.174387718925  1  1  1  
0.617237406127  0.576993406509  0.171511144368  1  1  1  
0.533166690464  0.383921150660  0.170561970815  1  1  1  
0.589582008834  0.173596858794  0.164176780414  1  1  1  
0.913690000000  0.250300000000  0.113754000000  0  0  0  
0.970495000000  0.040420000000  0.106302000000  0  0  0  
0.885750000000  0.849260000000  0.106074000000  0  0  0  
0.803320000000  0.644910000000  0.104954000000  0  0  0  
0.670965000000  0.307220000000  0.102030000000  0  0  0  
0.859120000000  0.442050000000  0.100183000000  0  0  0  
0.642015000000  0.892340000000  0.098008000000  0  0  0  
0.556750000000  0.698360000000  0.095883000000  0  0  0  
0.724665000000  0.091190000000  0.093857000000  0  0  0  
0.608215000000  0.496030000000  0.089800000000  0  0  0  
0.500965000000  0.357480000000  0.035600000000  0  0  0  
0.912835000000  0.164590000000  0.034488000000  0  0  0  
0.824735000000  0.960470000000  0.032020000000  0  0  0  
0.937865000000  0.564030000000  0.028291000000  0  0  0  
0.883235000000  0.762780000000  0.027142000000  0  0  0  
0.667870000000  0.214030000000  0.026643000000  0  0  0  
0.581110000000  0.019460000000  0.024240000000  0  0  0  
0.689555000000  0.618540000000  0.021965000000  0  0  0  
0.752150000000  0.419440000000  0.021922000000  0  0  0  
0.631805000000  0.812570000000  0.018392000000  0  0  0  

K 
0.000
1
0.164503827260  0.462179586069  0.353320320209  1  1  1  
