ATOMIC_SPECIES
Li  6.94          Li_ONCV_PBE-1.2.upf
Si  28.085        Si_ONCV_PBE-1.2.upf

NUMERICAL_ORBITAL
Li_gga_8au_100Ry_4s1p.orb
Si_gga_8au_100Ry_2s2p1d.orb

LATTICE_CONSTANT
1.8897261258369282 

LATTICE_VECTORS
10.862000000      0.0000000000      0.0000000000      
0.0000000000      10.862000000      0.0000000000      
0.0000000000      0.0000000000      10.862000000      

ATOMIC_POSITIONS
Direct

Li
0.0000000000
1
0.5650740000 0.5650630000 0.5650680000 1 1 1 v 0.0 0.0 0.0 mag 0.0 

Si
0.0000000000
64
0.1283990000 0.3773390000 0.1284100000 1 1 1 v 0.0 0.0 0.0 mag 0.0 
0.1272700000 0.3775970000 0.6274770000 1 1 1 v 0.0 0.0 0.0 mag 0.0 
0.1266220000 0.8778290000 0.1266580000 1 1 1 v 0.0 0.0 0.0 mag 0.0 
0.1268150000 0.8783870000 0.6272510000 1 1 1 v 0.0 0.0 0.0 mag 0.0 
0.6275130000 0.3775930000 0.1272800000 1 1 1 v 0.0 0.0 0.0 mag 0.0 
0.6315130000 0.3702190000 0.6314740000 1 1 1 v 0.0 0.0 0.0 mag 0.0 
0.6272580000 0.8783810000 0.1268530000 1 1 1 v 0.0 0.0 0.0 mag 0.0 
0.6267900000 0.8783160000 0.6267810000 1 1 1 v 0.0 0.0 0.0 mag 0.0 
0.0036000000 0.0035460000 0.2524090000 1 1 1 v 0.0 0.0 0.0 mag 0.0 
0.0018260000 0.0017890000 0.7528820000 1 1 1 v 0.0 0.0 0.0 mag 0.0 
0.0034050000 0.5029950000 0.2518470000 1 1 1 v 0.0 0.0 0.0 mag 0.0 
0.0029480000 0.5027670000 0.7526180000 1 1 1 v 0.0 0.0 0.0 mag 0.0 
0.5029570000 0.0033480000 0.2518570000 1 1 1 v 0.0 0.0 0.0 mag 0.0 
0.5027080000 0.0029190000 0.7526240000 1 1 1 v 0.0 0.0 0.0 mag 0.0 
0.5034310000 0.5034720000 0.2519200000 1 1 1 v 0.0 0.0 0.0 mag 0.0 
0.4987100000 0.4987760000 0.7599840000 1 1 1 v 0.0 0.0 0.0 mag 0.0 
0.1283960000 0.1284350000 0.3773420000 1 1 1 v 0.0 0.0 0.0 mag 0.0 
0.1266190000 0.1266820000 0.8778150000 1 1 1 v 0.0 0.0 0.0 mag 0.0 
0.1272700000 0.6274580000 0.3776040000 1 1 1 v 0.0 0.0 0.0 mag 0.0 
0.1268140000 0.6272290000 0.8783750000 1 1 1 v 0.0 0.0 0.0 mag 0.0 
0.6275090000 0.1273080000 0.3775990000 1 1 1 v 0.0 0.0 0.0 mag 0.0 
0.6272620000 0.1268760000 0.8783680000 1 1 1 v 0.0 0.0 0.0 mag 0.0 
0.6315180000 0.6314550000 0.3702360000 1 1 1 v 0.0 0.0 0.0 mag 0.0 
0.6267880000 0.6267570000 0.8783040000 1 1 1 v 0.0 0.0 0.0 mag 0.0 
0.0035980000 0.2523980000 0.0035650000 1 1 1 v 0.0 0.0 0.0 mag 0.0 
0.0034050000 0.2518380000 0.5029690000 1 1 1 v 0.0 0.0 0.0 mag 0.0 
0.0018220000 0.7528860000 0.0018130000 1 1 1 v 0.0 0.0 0.0 mag 0.0 
0.0029510000 0.7526280000 0.5027450000 1 1 1 v 0.0 0.0 0.0 mag 0.0 
0.5029600000 0.2518450000 0.0033700000 1 1 1 v 0.0 0.0 0.0 mag 0.0 
0.5034330000 0.2519120000 0.5034430000 1 1 1 v 0.0 0.0 0.0 mag 0.0 
0.5027060000 0.7526330000 0.0029420000 1 1 1 v 0.0 0.0 0.0 mag 0.0 
0.4987150000 0.7600040000 0.4987550000 1 1 1 v 0.0 0.0 0.0 mag 0.0 
0.3795060000 0.3794720000 0.3794900000 1 1 1 v 0.0 0.0 0.0 mag 0.0 
0.3732140000 0.3731990000 0.8804530000 1 1 1 v 0.0 0.0 0.0 mag 0.0 
0.3732120000 0.8804630000 0.3732190000 1 1 1 v 0.0 0.0 0.0 mag 0.0 
0.3785850000 0.8795740000 0.8795740000 1 1 1 v 0.0 0.0 0.0 mag 0.0 
0.8804420000 0.3732020000 0.3731960000 1 1 1 v 0.0 0.0 0.0 mag 0.0 
0.8795460000 0.3785930000 0.8795450000 1 1 1 v 0.0 0.0 0.0 mag 0.0 
0.8795490000 0.8795720000 0.3785890000 1 1 1 v 0.0 0.0 0.0 mag 0.0 
0.8761440000 0.8761850000 0.8761640000 1 1 1 v 0.0 0.0 0.0 mag 0.0 
0.2524190000 0.0035480000 0.0035820000 1 1 1 v 0.0 0.0 0.0 mag 0.0 
0.2518670000 0.0033480000 0.5029820000 1 1 1 v 0.0 0.0 0.0 mag 0.0 
0.2518590000 0.5029910000 0.0033840000 1 1 1 v 0.0 0.0 0.0 mag 0.0 
0.2519290000 0.5034700000 0.5034580000 1 1 1 v 0.0 0.0 0.0 mag 0.0 
0.7528760000 0.0017930000 0.0018020000 1 1 1 v 0.0 0.0 0.0 mag 0.0 
0.7526130000 0.0029160000 0.5027310000 1 1 1 v 0.0 0.0 0.0 mag 0.0 
0.7526070000 0.5027710000 0.0029250000 1 1 1 v 0.0 0.0 0.0 mag 0.0 
0.7599660000 0.4987720000 0.4987300000 1 1 1 v 0.0 0.0 0.0 mag 0.0 
0.3773440000 0.1284310000 0.1284220000 1 1 1 v 0.0 0.0 0.0 mag 0.0 
0.3776050000 0.1273090000 0.6274910000 1 1 1 v 0.0 0.0 0.0 mag 0.0 
0.3776100000 0.6274530000 0.1272990000 1 1 1 v 0.0 0.0 0.0 mag 0.0 
0.3702510000 0.6314600000 0.6314990000 1 1 1 v 0.0 0.0 0.0 mag 0.0 
0.8778010000 0.1266790000 0.1266430000 1 1 1 v 0.0 0.0 0.0 mag 0.0 
0.8783550000 0.1268760000 0.6272390000 1 1 1 v 0.0 0.0 0.0 mag 0.0 
0.8783620000 0.6272310000 0.1268370000 1 1 1 v 0.0 0.0 0.0 mag 0.0 
0.8782920000 0.6267570000 0.6267660000 1 1 1 v 0.0 0.0 0.0 mag 0.0 
0.2540770000 0.2540410000 0.2540590000 1 1 1 v 0.0 0.0 0.0 mag 0.0 
0.2506710000 0.2506540000 0.7516330000 1 1 1 v 0.0 0.0 0.0 mag 0.0 
0.2506720000 0.7516330000 0.2506790000 1 1 1 v 0.0 0.0 0.0 mag 0.0 
0.2497730000 0.7570250000 0.7570290000 1 1 1 v 0.0 0.0 0.0 mag 0.0 
0.7516340000 0.2506540000 0.2506480000 1 1 1 v 0.0 0.0 0.0 mag 0.0 
0.7570120000 0.2497570000 0.7570070000 1 1 1 v 0.0 0.0 0.0 mag 0.0 
0.7570090000 0.7570280000 0.2497650000 1 1 1 v 0.0 0.0 0.0 mag 0.0 
0.7507140000 0.7507550000 0.7507340000 1 1 1 v 0.0 0.0 0.0 mag 0.0 

