INPUT_PARAMETERS
# Created by Atomic Simulation Enviroment
calculation                             scf
nspin                                   2
ecutwfc                                 100
ks_solver                               genelpa
vdw_method                              d3_bj
smearing_method                         gaussian
smearing_sigma                          0.001
basis_type                              lcao
mixing_type                             broyden
scf_thr                                 1e-06
scf_nmax                                100
cal_force                               1
cal_stress                              1
out_stru                                1
out_chg                                 0
out_bandgap                             0
efield_flag                             1
dip_cor_flag                            1
efield_dir                              1
efield_pos_max                          0.0
ntype                                   2
dft_functional                          pbe
