ATOMIC_SPECIES
Cu  63.546        Cu_ONCV_PBE-1.0.upf
N   14.007        N_ONCV_PBE-1.0.upf

NUMERICAL_ORBITAL
Cu_gga_8au_100Ry_4s2p2d1f.orb
N_gga_7au_100Ry_2s2p1d.orb

LATTICE_CONSTANT
1.8897261258369282 

LATTICE_VECTORS
10.210600000      0.0000000000      0.0000000000      
0.0000000000      30.252700000      0.0000000000      
5.1053100000      0.0000000000      8.8426600000      

ATOMIC_POSITIONS
Direct

Cu
0.0000000000
64
0.0500000000 0.3966590000 0.0500000000 0 0 0 v 0.0 0.0 0.0 mag 0.0 
0.3000000000 0.3966590000 0.0500000000 0 0 0 v 0.0 0.0 0.0 mag 0.0 
0.5500000000 0.3966590000 0.0500000000 0 0 0 v 0.0 0.0 0.0 mag 0.0 
0.8000000000 0.3966590000 0.0500000000 0 0 0 v 0.0 0.0 0.0 mag 0.0 
0.0500000000 0.3966590000 0.3000000000 0 0 0 v 0.0 0.0 0.0 mag 0.0 
0.3000000000 0.3966590000 0.3000000000 0 0 0 v 0.0 0.0 0.0 mag 0.0 
0.5500000000 0.3966590000 0.3000000000 0 0 0 v 0.0 0.0 0.0 mag 0.0 
0.8000000000 0.3966590000 0.3000000000 0 0 0 v 0.0 0.0 0.0 mag 0.0 
0.0500000000 0.3966590000 0.5500000000 0 0 0 v 0.0 0.0 0.0 mag 0.0 
0.3000000000 0.3966590000 0.5500000000 0 0 0 v 0.0 0.0 0.0 mag 0.0 
0.5500000000 0.3966590000 0.5500000000 0 0 0 v 0.0 0.0 0.0 mag 0.0 
0.8000000000 0.3966590000 0.5500000000 0 0 0 v 0.0 0.0 0.0 mag 0.0 
0.0500000000 0.3966590000 0.8000000000 0 0 0 v 0.0 0.0 0.0 mag 0.0 
0.3000000000 0.3966590000 0.8000000000 0 0 0 v 0.0 0.0 0.0 mag 0.0 
0.5500000000 0.3966590000 0.8000000000 0 0 0 v 0.0 0.0 0.0 mag 0.0 
0.8000000000 0.3966590000 0.8000000000 0 0 0 v 0.0 0.0 0.0 mag 0.0 
0.1333330000 0.4655530000 0.1333330000 0 0 0 v 0.0 0.0 0.0 mag 0.0 
0.3833330000 0.4655530000 0.1333330000 0 0 0 v 0.0 0.0 0.0 mag 0.0 
0.6333330000 0.4655530000 0.1333330000 0 0 0 v 0.0 0.0 0.0 mag 0.0 
0.8833330000 0.4655530000 0.1333330000 0 0 0 v 0.0 0.0 0.0 mag 0.0 
0.1333330000 0.4655530000 0.3833330000 0 0 0 v 0.0 0.0 0.0 mag 0.0 
0.3833330000 0.4655530000 0.3833330000 0 0 0 v 0.0 0.0 0.0 mag 0.0 
0.6333330000 0.4655530000 0.3833330000 0 0 0 v 0.0 0.0 0.0 mag 0.0 
0.8833330000 0.4655530000 0.3833330000 0 0 0 v 0.0 0.0 0.0 mag 0.0 
0.1333330000 0.4655530000 0.6333330000 0 0 0 v 0.0 0.0 0.0 mag 0.0 
0.3833330000 0.4655530000 0.6333330000 0 0 0 v 0.0 0.0 0.0 mag 0.0 
0.6333330000 0.4655530000 0.6333330000 0 0 0 v 0.0 0.0 0.0 mag 0.0 
0.8833330000 0.4655530000 0.6333330000 0 0 0 v 0.0 0.0 0.0 mag 0.0 
0.1333330000 0.4655530000 0.8833330000 0 0 0 v 0.0 0.0 0.0 mag 0.0 
0.3833330000 0.4655530000 0.8833330000 0 0 0 v 0.0 0.0 0.0 mag 0.0 
0.6333330000 0.4655530000 0.8833330000 0 0 0 v 0.0 0.0 0.0 mag 0.0 
0.8833330000 0.4655530000 0.8833330000 0 0 0 v 0.0 0.0 0.0 mag 0.0 
0.9660650000 0.5323250000 0.2172430000 1 1 1 v 0.0 0.0 0.0 mag 0.0 
0.2180250000 0.5319980000 0.2169050000 1 1 1 v 0.0 0.0 0.0 mag 0.0 
0.4649940000 0.5316880000 0.2193870000 1 1 1 v 0.0 0.0 0.0 mag 0.0 
0.7144060000 0.5319950000 0.2169290000 1 1 1 v 0.0 0.0 0.0 mag 0.0 
0.9668560000 0.5329420000 0.4661940000 1 1 1 v 0.0 0.0 0.0 mag 0.0 
0.2143320000 0.5328850000 0.4686550000 1 1 1 v 0.0 0.0 0.0 mag 0.0 
0.4663530000 0.5328920000 0.4686900000 1 1 1 v 0.0 0.0 0.0 mag 0.0 
0.7163140000 0.5329370000 0.4662120000 1 1 1 v 0.0 0.0 0.0 mag 0.0 
0.9649010000 0.5333800000 0.7167380000 1 1 1 v 0.0 0.0 0.0 mag 0.0 
0.2160160000 0.5325290000 0.7173460000 1 1 1 v 0.0 0.0 0.0 mag 0.0 
0.4677240000 0.5333860000 0.7167540000 1 1 1 v 0.0 0.0 0.0 mag 0.0 
0.7171680000 0.5336070000 0.7150510000 1 1 1 v 0.0 0.0 0.0 mag 0.0 
0.9660840000 0.5324330000 0.9667300000 1 1 1 v 0.0 0.0 0.0 mag 0.0 
0.2165850000 0.5324330000 0.9667280000 1 1 1 v 0.0 0.0 0.0 mag 0.0 
0.4677310000 0.5326380000 0.9656370000 1 1 1 v 0.0 0.0 0.0 mag 0.0 
0.7159830000 0.5326380000 0.9656530000 1 1 1 v 0.0 0.0 0.0 mag 0.0 
0.0504900000 0.5999950000 0.0479320000 1 1 1 v 0.0 0.0 0.0 mag 0.0 
0.2984760000 0.5992920000 0.0522850000 1 1 1 v 0.0 0.0 0.0 mag 0.0 
0.5454350000 0.5989960000 0.0580160000 1 1 1 v 0.0 0.0 0.0 mag 0.0 
0.7981660000 0.5992880000 0.0522800000 1 1 1 v 0.0 0.0 0.0 mag 0.0 
0.0555180000 0.5990300000 0.2917600000 1 1 1 v 0.0 0.0 0.0 mag 0.0 
0.2996480000 0.5995140000 0.3014240000 1 1 1 v 0.0 0.0 0.0 mag 0.0 
0.5478190000 0.5995140000 0.3014280000 1 1 1 v 0.0 0.0 0.0 mag 0.0 
0.8016240000 0.5990230000 0.2917780000 1 1 1 v 0.0 0.0 0.0 mag 0.0 
0.0549440000 0.6029910000 0.5456980000 1 1 1 v 0.0 0.0 0.0 mag 0.0 
0.2992110000 0.5998750000 0.5504460000 1 1 1 v 0.0 0.0 0.0 mag 0.0 
0.5482310000 0.6029930000 0.5457010000 1 1 1 v 0.0 0.0 0.0 mag 0.0 
0.8077620000 0.6037550000 0.5333280000 1 1 1 v 0.0 0.0 0.0 mag 0.0 
0.0506620000 0.5999300000 0.8008490000 1 1 1 v 0.0 0.0 0.0 mag 0.0 
0.2973850000 0.5999320000 0.8008330000 1 1 1 v 0.0 0.0 0.0 mag 0.0 
0.5426950000 0.6025820000 0.8137400000 1 1 1 v 0.0 0.0 0.0 mag 0.0 
0.7924050000 0.6025780000 0.8137660000 1 1 1 v 0.0 0.0 0.0 mag 0.0 

N
0.0000000000
2
0.6267110000 0.6366230000 0.6411580000 1 1 1 v 0.0 0.0 0.0 mag 0.0 
0.8809810000 0.6366100000 0.6411720000 1 1 1 v 0.0 0.0 0.0 mag 0.0 

