ATOMIC_SPECIES
C   12.011        C_ONCV_PBE-1.0.upf
Pt  195.084       Pt_ONCV_PBE-1.0.upf
H   1.008         H_ONCV_PBE-1.0.upf

NUMERICAL_ORBITAL
C_gga_7au_100Ry_2s2p1d.orb
Pt_gga_7au_100Ry_4s2p2d1f.orb
H_gga_6au_100Ry_2s1p.orb

LATTICE_CONSTANT
1.8897261258369282 

LATTICE_VECTORS
12.322700000      0.0000000000      0.0000000000      
0.0000000000      20.000000000      0.0000000000      
-6.161540000      0.0000000000      10.671500000      

ATOMIC_POSITIONS
Direct

C
0.0000000000
54
0.0320870000 0.4951380000 0.0324770000 1 1 1 v 0.0 0.0 0.0 mag 0.0 
0.1661180000 0.4951220000 0.1014400000 1 1 1 v 0.0 0.0 0.0 mag 0.0 
0.2346500000 0.4942040000 0.0372050000 1 1 1 v 0.0 0.0 0.0 mag 0.0 
0.3686260000 0.4970260000 0.1059410000 1 1 1 v 0.0 0.0 0.0 mag 0.0 
0.4338600000 0.4943000000 0.0372070000 1 1 1 v 0.0 0.0 0.0 mag 0.0 
0.5666010000 0.4952870000 0.1014650000 1 1 1 v 0.0 0.0 0.0 mag 0.0 
0.6316340000 0.4953690000 0.0324840000 1 1 1 v 0.0 0.0 0.0 mag 0.0 
0.7643920000 0.4943410000 0.0967350000 1 1 1 v 0.0 0.0 0.0 mag 0.0 
0.8296230000 0.4971350000 0.0280250000 1 1 1 v 0.0 0.0 0.0 mag 0.0 
0.9635750000 0.4942740000 0.0967370000 1 1 1 v 0.0 0.0 0.0 mag 0.0 
0.0300400000 0.4901840000 0.2303760000 1 1 1 v 0.0 0.0 0.0 mag 0.0 
0.1627980000 0.4924130000 0.2984860000 1 1 1 v 0.0 0.0 0.0 mag 0.0 
0.2320230000 0.4974010000 0.2349730000 1 1 1 v 0.0 0.0 0.0 mag 0.0 
0.3654680000 0.5055200000 0.3050870000 1 1 1 v 0.0 0.0 0.0 mag 0.0 
0.4353060000 0.5042370000 0.2394270000 1 1 1 v 0.0 0.0 0.0 mag 0.0 
0.5707450000 0.5051860000 0.3051890000 1 1 1 v 0.0 0.0 0.0 mag 0.0 
0.6341440000 0.4973440000 0.2350700000 1 1 1 v 0.0 0.0 0.0 mag 0.0 
0.7669280000 0.4923040000 0.2985840000 1 1 1 v 0.0 0.0 0.0 mag 0.0 
0.8315230000 0.4901560000 0.2304180000 1 1 1 v 0.0 0.0 0.0 mag 0.0 
0.9644360000 0.4869790000 0.2976710000 1 1 1 v 0.0 0.0 0.0 mag 0.0 
0.0315040000 0.4833450000 0.4317640000 1 1 1 v 0.0 0.0 0.0 mag 0.0 
0.1632570000 0.4844960000 0.4999510000 1 1 1 v 0.0 0.0 0.0 mag 0.0 
0.2268600000 0.4910180000 0.4318980000 1 1 1 v 0.0 0.0 0.0 mag 0.0 
0.3557710000 0.5018890000 0.4992440000 1 1 1 v 0.0 0.0 0.0 mag 0.0 
0.4232580000 0.5147130000 0.4369410000 1 1 1 v 0.0 0.0 0.0 mag 0.0 
0.6449610000 0.5140080000 0.4372420000 1 1 1 v 0.0 0.0 0.0 mag 0.0 
0.7748330000 0.5013980000 0.4995260000 1 1 1 v 0.0 0.0 0.0 mag 0.0 
0.8363270000 0.4907890000 0.4320270000 1 1 1 v 0.0 0.0 0.0 mag 0.0 
0.9680080000 0.4843450000 0.5000100000 1 1 1 v 0.0 0.0 0.0 mag 0.0 
0.0349970000 0.4843030000 0.6339840000 1 1 1 v 0.0 0.0 0.0 mag 0.0 
0.1667610000 0.4833570000 0.7021640000 1 1 1 v 0.0 0.0 0.0 mag 0.0 
0.2302710000 0.4845440000 0.6339240000 1 1 1 v 0.0 0.0 0.0 mag 0.0 
0.3619550000 0.4911140000 0.7018960000 1 1 1 v 0.0 0.0 0.0 mag 0.0 
0.4234340000 0.5018410000 0.6344310000 1 1 1 v 0.0 0.0 0.0 mag 0.0 
0.5533730000 0.5145580000 0.6967350000 1 1 1 v 0.0 0.0 0.0 mag 0.0 
0.7749590000 0.5147420000 0.6969860000 1 1 1 v 0.0 0.0 0.0 mag 0.0 
0.8424520000 0.5016020000 0.6347050000 1 1 1 v 0.0 0.0 0.0 mag 0.0 
0.9713530000 0.4907360000 0.7020360000 1 1 1 v 0.0 0.0 0.0 mag 0.0 
0.0354320000 0.4922550000 0.8354590000 1 1 1 v 0.0 0.0 0.0 mag 0.0 
0.1681880000 0.4900930000 0.9035650000 1 1 1 v 0.0 0.0 0.0 mag 0.0 
0.2338080000 0.4869800000 0.8362610000 1 1 1 v 0.0 0.0 0.0 mag 0.0 
0.3667260000 0.4902490000 0.9035080000 1 1 1 v 0.0 0.0 0.0 mag 0.0 
0.4313290000 0.4925710000 0.8353600000 1 1 1 v 0.0 0.0 0.0 mag 0.0 
0.5641080000 0.4976280000 0.8988950000 1 1 1 v 0.0 0.0 0.0 mag 0.0 
0.6275380000 0.5055630000 0.8288030000 1 1 1 v 0.0 0.0 0.0 mag 0.0 
0.7629470000 0.5044370000 0.8945410000 1 1 1 v 0.0 0.0 0.0 mag 0.0 
0.8327520000 0.5055900000 0.8288590000 1 1 1 v 0.0 0.0 0.0 mag 0.0 
0.9661790000 0.4973410000 0.8989350000 1 1 1 v 0.0 0.0 0.0 mag 0.0 
0.5747350000 0.7028580000 0.5106230000 1 1 1 v 0.0 0.0 0.0 mag 0.0 
0.7141330000 0.7203240000 0.5845730000 1 1 1 v 0.0 0.0 0.0 mag 0.0 
0.7332840000 0.7940560000 0.6232740000 1 1 1 v 0.0 0.0 0.0 mag 0.0 
0.6670610000 0.8119620000 0.6965660000 1 1 1 v 0.0 0.0 0.0 mag 0.0 
0.5277830000 0.7935420000 0.6233990000 1 1 1 v 0.0 0.0 0.0 mag 0.0 
0.5092010000 0.7198090000 0.5847130000 1 1 1 v 0.0 0.0 0.0 mag 0.0 

Pt
0.0000000000
1
0.5992360000 0.5338340000 0.5670770000 1 1 1 v 0.0 0.0 0.0 mag 0.0 

H
0.0000000000
12
0.4829790000 0.8048750000 0.6792150000 1 1 1 v 0.0 0.0 0.0 mag 0.0 
0.5297130000 0.7303380000 0.4210520000 1 1 1 v 0.0 0.0 0.0 mag 0.0 
0.7594690000 0.7085520000 0.5294240000 1 1 1 v 0.0 0.0 0.0 mag 0.0 
0.7599530000 0.6886720000 0.6691270000 1 1 1 v 0.0 0.0 0.0 mag 0.0 
0.8337590000 0.8057580000 0.6790080000 1 1 1 v 0.0 0.0 0.0 mag 0.0 
0.6952280000 0.8254010000 0.5384030000 1 1 1 v 0.0 0.0 0.0 mag 0.0 
0.6784100000 0.8655070000 0.7199440000 1 1 1 v 0.0 0.0 0.0 mag 0.0 
0.7121930000 0.7847180000 0.7863890000 1 1 1 v 0.0 0.0 0.0 mag 0.0 
0.4804700000 0.8248570000 0.5385290000 1 1 1 v 0.0 0.0 0.0 mag 0.0 
0.4088800000 0.7076440000 0.5296660000 1 1 1 v 0.0 0.0 0.0 mag 0.0 
0.5484540000 0.6881540000 0.6692850000 1 1 1 v 0.0 0.0 0.0 mag 0.0 
0.5627740000 0.6490890000 0.4860550000 1 1 1 v 0.0 0.0 0.0 mag 0.0 

