ATOMIC_SPECIES
C   12.011        C_ONCV_PBE-1.0.upf
O   15.999        O_ONCV_PBE-1.0.upf
Pt  195.084       Pt_ONCV_PBE-1.0.upf

NUMERICAL_ORBITAL
C_gga_7au_100Ry_2s2p1d.orb
O_gga_7au_100Ry_2s2p1d.orb
Pt_gga_7au_100Ry_4s2p2d1f.orb

LATTICE_CONSTANT
1.8897261258369282 

LATTICE_VECTORS
11.187400000      0.0000000000      0.0000000000      
0.0000000000      18.850900000      0.0000000000      
-5.593700000      0.0000000000      9.6885700000      

ATOMIC_POSITIONS
Direct

C
0.0000000000
1
0.4158710000 0.4252770000 0.6439640000 1 1 1 v 0.0 0.0 0.0 mag 0.0 

O
0.0000000000
1
0.4242660000 0.4806920000 0.5969900000 1 1 1 v 0.0 0.0 0.0 mag 0.0 

Pt
0.0000000000
64
0.0445520000 0.0000000000 0.0222760000 0 0 0 v 0.0 0.0 0.0 mag 0.0 
0.2945520000 0.0000000000 0.0222760000 0 0 0 v 0.0 0.0 0.0 mag 0.0 
0.5445520000 0.0000000000 0.0222760000 0 0 0 v 0.0 0.0 0.0 mag 0.0 
0.7945520000 0.0000000000 0.0222760000 0 0 0 v 0.0 0.0 0.0 mag 0.0 
0.0445520000 0.0000000000 0.2722760000 0 0 0 v 0.0 0.0 0.0 mag 0.0 
0.2945520000 0.0000000000 0.2722760000 0 0 0 v 0.0 0.0 0.0 mag 0.0 
0.5445520000 0.0000000000 0.2722760000 0 0 0 v 0.0 0.0 0.0 mag 0.0 
0.7945520000 0.0000000000 0.2722760000 0 0 0 v 0.0 0.0 0.0 mag 0.0 
0.2945520000 0.0000000000 0.5222760000 0 0 0 v 0.0 0.0 0.0 mag 0.0 
0.5445520000 0.0000000000 0.5222760000 0 0 0 v 0.0 0.0 0.0 mag 0.0 
0.7945520000 0.0000000000 0.5222760000 0 0 0 v 0.0 0.0 0.0 mag 0.0 
0.0445520000 0.0000000000 0.5222760000 0 0 0 v 0.0 0.0 0.0 mag 0.0 
0.0445520000 0.0000000000 0.7722760000 0 0 0 v 0.0 0.0 0.0 mag 0.0 
0.2945520000 0.0000000000 0.7722760000 0 0 0 v 0.0 0.0 0.0 mag 0.0 
0.5445520000 0.0000000000 0.7722760000 0 0 0 v 0.0 0.0 0.0 mag 0.0 
0.7945520000 0.0000000000 0.7722760000 0 0 0 v 0.0 0.0 0.0 mag 0.0 
0.8780180000 0.1204320000 0.1880710000 1 1 1 v 0.0 0.0 0.0 mag 0.0 
0.8776100000 0.1205270000 0.4381600000 1 1 1 v 0.0 0.0 0.0 mag 0.0 
0.8786680000 0.1199560000 0.9380790000 1 1 1 v 0.0 0.0 0.0 mag 0.0 
0.6278920000 0.1205210000 0.1883410000 1 1 1 v 0.0 0.0 0.0 mag 0.0 
0.3782950000 0.1204200000 0.1889390000 1 1 1 v 0.0 0.0 0.0 mag 0.0 
0.1278100000 0.1197080000 0.1870980000 1 1 1 v 0.0 0.0 0.0 mag 0.0 
0.8770500000 0.1206270000 0.6876990000 1 1 1 v 0.0 0.0 0.0 mag 0.0 
0.1281510000 0.1204950000 0.9376540000 1 1 1 v 0.0 0.0 0.0 mag 0.0 
0.6274810000 0.1209430000 0.4386690000 1 1 1 v 0.0 0.0 0.0 mag 0.0 
0.3777560000 0.1206900000 0.9380770000 1 1 1 v 0.0 0.0 0.0 mag 0.0 
0.1281240000 0.1203140000 0.4386550000 1 1 1 v 0.0 0.0 0.0 mag 0.0 
0.6277360000 0.1207980000 0.9379520000 1 1 1 v 0.0 0.0 0.0 mag 0.0 
0.6276840000 0.1211310000 0.6887810000 1 1 1 v 0.0 0.0 0.0 mag 0.0 
0.1280270000 0.1207680000 0.6884890000 1 1 1 v 0.0 0.0 0.0 mag 0.0 
0.3779300000 0.1207200000 0.4389920000 1 1 1 v 0.0 0.0 0.0 mag 0.0 
0.3780840000 0.1216280000 0.6885500000 1 1 1 v 0.0 0.0 0.0 mag 0.0 
0.9622880000 0.2384670000 0.8543850000 1 1 1 v 0.0 0.0 0.0 mag 0.0 
0.9615750000 0.2379240000 0.1034930000 1 1 1 v 0.0 0.0 0.0 mag 0.0 
0.9607780000 0.2385530000 0.3545920000 1 1 1 v 0.0 0.0 0.0 mag 0.0 
0.4613300000 0.2387950000 0.1057400000 1 1 1 v 0.0 0.0 0.0 mag 0.0 
0.7114850000 0.2387510000 0.1052140000 1 1 1 v 0.0 0.0 0.0 mag 0.0 
0.7109680000 0.2392740000 0.3553730000 1 1 1 v 0.0 0.0 0.0 mag 0.0 
0.9604010000 0.2389270000 0.6049920000 1 1 1 v 0.0 0.0 0.0 mag 0.0 
0.2114200000 0.2380680000 0.1031240000 1 1 1 v 0.0 0.0 0.0 mag 0.0 
0.4608450000 0.2391650000 0.3556380000 1 1 1 v 0.0 0.0 0.0 mag 0.0 
0.2122790000 0.2400410000 0.8537860000 1 1 1 v 0.0 0.0 0.0 mag 0.0 
0.7115190000 0.2394250000 0.8556130000 1 1 1 v 0.0 0.0 0.0 mag 0.0 
0.7114700000 0.2393720000 0.6057810000 1 1 1 v 0.0 0.0 0.0 mag 0.0 
0.2098950000 0.2376420000 0.3531200000 1 1 1 v 0.0 0.0 0.0 mag 0.0 
0.4607600000 0.2403030000 0.8552790000 1 1 1 v 0.0 0.0 0.0 mag 0.0 
0.4612000000 0.2409950000 0.6056040000 1 1 1 v 0.0 0.0 0.0 mag 0.0 
0.2104890000 0.2394950000 0.6055000000 1 1 1 v 0.0 0.0 0.0 mag 0.0 
0.0404050000 0.3589780000 0.2674430000 1 1 1 v 0.0 0.0 0.0 mag 0.0 
0.5445290000 0.3601790000 0.2728830000 1 1 1 v 0.0 0.0 0.0 mag 0.0 
0.0388390000 0.3594560000 0.5201450000 1 1 1 v 0.0 0.0 0.0 mag 0.0 
0.5463740000 0.3595300000 0.0271860000 1 1 1 v 0.0 0.0 0.0 mag 0.0 
0.0456880000 0.3594700000 0.0212800000 1 1 1 v 0.0 0.0 0.0 mag 0.0 
0.7937430000 0.3599840000 0.2724790000 1 1 1 v 0.0 0.0 0.0 mag 0.0 
0.2953810000 0.3602940000 0.0217960000 1 1 1 v 0.0 0.0 0.0 mag 0.0 
0.7999160000 0.3597160000 0.7750430000 1 1 1 v 0.0 0.0 0.0 mag 0.0 
0.7980610000 0.3597150000 0.0251910000 1 1 1 v 0.0 0.0 0.0 mag 0.0 
0.7955880000 0.3607920000 0.5227820000 1 1 1 v 0.0 0.0 0.0 mag 0.0 
0.0453950000 0.3605940000 0.7719540000 1 1 1 v 0.0 0.0 0.0 mag 0.0 
0.2929770000 0.3581820000 0.2678140000 1 1 1 v 0.0 0.0 0.0 mag 0.0 
0.5519790000 0.3590990000 0.5221440000 1 1 1 v 0.0 0.0 0.0 mag 0.0 
0.5550390000 0.3613200000 0.7835670000 1 1 1 v 0.0 0.0 0.0 mag 0.0 
0.2919580000 0.3635980000 0.7742360000 1 1 1 v 0.0 0.0 0.0 mag 0.0 
0.2795290000 0.3569760000 0.5097270000 1 1 1 v 0.0 0.0 0.0 mag 0.0 

