ATOMIC_SPECIES
Cu  63.546        Cu_ONCV_PBE-1.0.upf
N   14.007        N_ONCV_PBE-1.0.upf

NUMERICAL_ORBITAL
Cu_gga_8au_100Ry_4s2p2d1f.orb
N_gga_7au_100Ry_2s2p1d.orb

LATTICE_CONSTANT
1.8897261258369282 

LATTICE_VECTORS
10.210600000      0.0000000000      0.0000000000      
0.0000000000      30.252700000      0.0000000000      
5.1053100000      0.0000000000      8.8426600000      

ATOMIC_POSITIONS
Direct

Cu
0.0000000000
64
0.0500000000 0.3966590000 0.0500000000 0 0 0 v 0.0 0.0 0.0 mag 0.0 
0.3000000000 0.3966590000 0.0500000000 0 0 0 v 0.0 0.0 0.0 mag 0.0 
0.5500000000 0.3966590000 0.0500000000 0 0 0 v 0.0 0.0 0.0 mag 0.0 
0.8000000000 0.3966590000 0.0500000000 0 0 0 v 0.0 0.0 0.0 mag 0.0 
0.0500000000 0.3966590000 0.3000000000 0 0 0 v 0.0 0.0 0.0 mag 0.0 
0.3000000000 0.3966590000 0.3000000000 0 0 0 v 0.0 0.0 0.0 mag 0.0 
0.5500000000 0.3966590000 0.3000000000 0 0 0 v 0.0 0.0 0.0 mag 0.0 
0.8000000000 0.3966590000 0.3000000000 0 0 0 v 0.0 0.0 0.0 mag 0.0 
0.0500000000 0.3966590000 0.5500000000 0 0 0 v 0.0 0.0 0.0 mag 0.0 
0.3000000000 0.3966590000 0.5500000000 0 0 0 v 0.0 0.0 0.0 mag 0.0 
0.5500000000 0.3966590000 0.5500000000 0 0 0 v 0.0 0.0 0.0 mag 0.0 
0.8000000000 0.3966590000 0.5500000000 0 0 0 v 0.0 0.0 0.0 mag 0.0 
0.0500000000 0.3966590000 0.8000000000 0 0 0 v 0.0 0.0 0.0 mag 0.0 
0.3000000000 0.3966590000 0.8000000000 0 0 0 v 0.0 0.0 0.0 mag 0.0 
0.5500000000 0.3966590000 0.8000000000 0 0 0 v 0.0 0.0 0.0 mag 0.0 
0.8000000000 0.3966590000 0.8000000000 0 0 0 v 0.0 0.0 0.0 mag 0.0 
0.1333330000 0.4655530000 0.1333330000 0 0 0 v 0.0 0.0 0.0 mag 0.0 
0.3833330000 0.4655530000 0.1333330000 0 0 0 v 0.0 0.0 0.0 mag 0.0 
0.6333330000 0.4655530000 0.1333330000 0 0 0 v 0.0 0.0 0.0 mag 0.0 
0.8833330000 0.4655530000 0.1333330000 0 0 0 v 0.0 0.0 0.0 mag 0.0 
0.1333330000 0.4655530000 0.3833330000 0 0 0 v 0.0 0.0 0.0 mag 0.0 
0.3833330000 0.4655530000 0.3833330000 0 0 0 v 0.0 0.0 0.0 mag 0.0 
0.6333330000 0.4655530000 0.3833330000 0 0 0 v 0.0 0.0 0.0 mag 0.0 
0.8833330000 0.4655530000 0.3833330000 0 0 0 v 0.0 0.0 0.0 mag 0.0 
0.1333330000 0.4655530000 0.6333330000 0 0 0 v 0.0 0.0 0.0 mag 0.0 
0.3833330000 0.4655530000 0.6333330000 0 0 0 v 0.0 0.0 0.0 mag 0.0 
0.6333330000 0.4655530000 0.6333330000 0 0 0 v 0.0 0.0 0.0 mag 0.0 
0.8833330000 0.4655530000 0.6333330000 0 0 0 v 0.0 0.0 0.0 mag 0.0 
0.1333330000 0.4655530000 0.8833330000 0 0 0 v 0.0 0.0 0.0 mag 0.0 
0.3833330000 0.4655530000 0.8833330000 0 0 0 v 0.0 0.0 0.0 mag 0.0 
0.6333330000 0.4655530000 0.8833330000 0 0 0 v 0.0 0.0 0.0 mag 0.0 
0.8833330000 0.4655530000 0.8833330000 0 0 0 v 0.0 0.0 0.0 mag 0.0 
0.9666980000 0.5324120000 0.2165920000 1 1 1 v 0.0 0.0 0.0 mag 0.0 
0.2166830000 0.5324140000 0.2165660000 1 1 1 v 0.0 0.0 0.0 mag 0.0 
0.4666510000 0.5324170000 0.2166680000 1 1 1 v 0.0 0.0 0.0 mag 0.0 
0.7166960000 0.5324130000 0.2165290000 1 1 1 v 0.0 0.0 0.0 mag 0.0 
0.9670840000 0.5322810000 0.4663790000 1 1 1 v 0.0 0.0 0.0 mag 0.0 
0.2167820000 0.5324090000 0.4665600000 1 1 1 v 0.0 0.0 0.0 mag 0.0 
0.4665680000 0.5323830000 0.4664970000 1 1 1 v 0.0 0.0 0.0 mag 0.0 
0.7165550000 0.5323000000 0.4664430000 1 1 1 v 0.0 0.0 0.0 mag 0.0 
0.9667770000 0.5323850000 0.7165580000 1 1 1 v 0.0 0.0 0.0 mag 0.0 
0.2166270000 0.5324190000 0.7166200000 1 1 1 v 0.0 0.0 0.0 mag 0.0 
0.4665380000 0.5323220000 0.7165170000 1 1 1 v 0.0 0.0 0.0 mag 0.0 
0.7167050000 0.5322510000 0.7167090000 1 1 1 v 0.0 0.0 0.0 mag 0.0 
0.9666780000 0.5324400000 0.9666120000 1 1 1 v 0.0 0.0 0.0 mag 0.0 
0.2166590000 0.5324240000 0.9666280000 1 1 1 v 0.0 0.0 0.0 mag 0.0 
0.4664630000 0.5322940000 0.9669730000 1 1 1 v 0.0 0.0 0.0 mag 0.0 
0.7166220000 0.5323780000 0.9667280000 1 1 1 v 0.0 0.0 0.0 mag 0.0 
0.0500010000 0.5998150000 0.0499000000 1 1 1 v 0.0 0.0 0.0 mag 0.0 
0.3000330000 0.5998430000 0.0498970000 1 1 1 v 0.0 0.0 0.0 mag 0.0 
0.5500360000 0.5998040000 0.0498030000 1 1 1 v 0.0 0.0 0.0 mag 0.0 
0.7999820000 0.5998400000 0.0498590000 1 1 1 v 0.0 0.0 0.0 mag 0.0 
0.0500310000 0.5998330000 0.2998800000 1 1 1 v 0.0 0.0 0.0 mag 0.0 
0.3000300000 0.5998080000 0.2998710000 1 1 1 v 0.0 0.0 0.0 mag 0.0 
0.5500430000 0.5998260000 0.2998680000 1 1 1 v 0.0 0.0 0.0 mag 0.0 
0.8000100000 0.5998130000 0.2998770000 1 1 1 v 0.0 0.0 0.0 mag 0.0 
0.0500100000 0.5997770000 0.5498560000 1 1 1 v 0.0 0.0 0.0 mag 0.0 
0.3000140000 0.5998330000 0.5498940000 1 1 1 v 0.0 0.0 0.0 mag 0.0 
0.5499970000 0.5996620000 0.5498510000 1 1 1 v 0.0 0.0 0.0 mag 0.0 
0.8003970000 0.5991330000 0.5494950000 1 1 1 v 0.0 0.0 0.0 mag 0.0 
0.0500010000 0.5998310000 0.7998630000 1 1 1 v 0.0 0.0 0.0 mag 0.0 
0.3000200000 0.5998250000 0.7998830000 1 1 1 v 0.0 0.0 0.0 mag 0.0 
0.5496360000 0.5992560000 0.8002610000 1 1 1 v 0.0 0.0 0.0 mag 0.0 
0.8000560000 0.5996460000 0.7999700000 1 1 1 v 0.0 0.0 0.0 mag 0.0 

N
0.0000000000
2
0.6510650000 0.7057590000 0.6464050000 1 1 1 v 0.0 0.0 0.0 mag 0.0 
0.7379960000 0.7052650000 0.6803150000 1 1 1 v 0.0 0.0 0.0 mag 0.0 

