ATOMIC_SPECIES
Cu 63.546 Cu_ONCV_PBE-1.0.upf upf201
Ag 107.868 Ag_ONCV_PBE-1.0.upf upf201

NUMERICAL_ORBITAL
Cu_gga_8au_100Ry_4s2p2d1f.orb
Ag_gga_7au_100Ry_4s2p2d1f.orb

LATTICE_CONSTANT
1.889726

LATTICE_VECTORS
    7.2299197037     0.0000000000     0.0000000000 #latvec1
    0.0000000000     7.2299197037     0.0000000000 #latvec2
    0.0000000000     0.0000000000    19.9999991802 #latvec3

ATOMIC_POSITIONS
Direct

Cu #label
0 #magnetism
32 #number of atoms
    0.1250000000     0.1250000000     0.0451870000 m  0  0  0
    0.1250000000     0.3750000000     0.1355610000 m  0  0  0
    0.3750000000     0.1250000000     0.1355610000 m  0  0  0
    0.3750000000     0.3750000000     0.0451870000 m  0  0  0
    0.6250000000     0.1250000000     0.0451870000 m  0  0  0
    0.6250000000     0.3750000000     0.1355610000 m  0  0  0
    0.8750000000     0.1250000000     0.1355610000 m  0  0  0
    0.8750000000     0.3750000000     0.0451870000 m  0  0  0
    0.1250000000     0.6250000000     0.0451870000 m  0  0  0
    0.1250000000     0.8750000000     0.1355610000 m  0  0  0
    0.3750000000     0.6250000000     0.1355610000 m  0  0  0
    0.3750000000     0.8750000000     0.0451870000 m  0  0  0
    0.6250000000     0.6250000000     0.0451870000 m  0  0  0
    0.6250000000     0.8750000000     0.1355610000 m  0  0  0
    0.8750000000     0.6250000000     0.1355610000 m  0  0  0
    0.8750000000     0.8750000000     0.0451870000 m  0  0  0
    0.1253710518     0.1254872591     0.2246497299 m  1  1  1
    0.1177664097     0.3748395720     0.3126353335 m  1  1  1
    0.3745462932     0.1180681156     0.3128024933 m  1  1  1
    0.3748839761     0.3749647062     0.2249888494 m  1  1  1
    0.6239841214     0.1256730619     0.2247769293 m  1  1  1
    0.6312791254     0.3748210146     0.3131813427 m  1  1  1
    0.8745573925     0.1222723189     0.3120133690 m  1  1  1
    0.8740734915     0.3750357795     0.2251446033 m  1  1  1
    0.1254367573     0.6242468104     0.2246988466 m  1  1  1
    0.1221059905     0.8748365996     0.3120233705 m  1  1  1
    0.3745286645     0.6315826138     0.3130186891 m  1  1  1
    0.3750660057     0.8746480887     0.2251421493 m  1  1  1
    0.6238979540     0.6240481271     0.2248309139 m  1  1  1
    0.6273024022     0.8748283862     0.3120356392 m  1  1  1
    0.8745451600     0.6274880574     0.3120182231 m  1  1  1
    0.8748062185     0.8749338583     0.2242607914 m  1  1  1

Ag #label
0 #magnetism
1 #number of atoms
    0.3742059486     0.3746811501     0.4040492476 m  1  1  1
