ATOMIC_SPECIES
H   1.008         H_ONCV_PBE-1.0.upf
Au  196.966569    Au_ONCV_PBE-1.0.upf

NUMERICAL_ORBITAL
H_gga_6au_100Ry_2s1p.orb
Au_gga_7au_100Ry_4s2p2d1f.orb

LATTICE_CONSTANT
1.8897261258369282 

LATTICE_VECTORS
11.535200000      0.0000000000      0.0000000000      
0.0000000000      19.063800000      0.0000000000      
-5.767600000      0.0000000000      9.9897700000      

ATOMIC_POSITIONS
Direct

H
0.0000000000
2
0.5508160000 0.5325530000 0.6842090000 1 1 1 v 0.0 0.0 0.0 mag 0.0 
0.3970140000 0.5326000000 0.5304600000 1 1 1 v 0.0 0.0 0.0 mag 0.0 

Au
0.0000000000
64
0.0400000000 0.1000000000 0.0400000000 0 0 0 v 0.0 0.0 0.0 mag 0.0 
0.2900000000 0.1000000000 0.0400000000 0 0 0 v 0.0 0.0 0.0 mag 0.0 
0.5400000000 0.1000000000 0.0400000000 0 0 0 v 0.0 0.0 0.0 mag 0.0 
0.7900000000 0.1000000000 0.0400000000 0 0 0 v 0.0 0.0 0.0 mag 0.0 
0.0400000000 0.1000000000 0.2900000000 0 0 0 v 0.0 0.0 0.0 mag 0.0 
0.2900000000 0.1000000000 0.2900000000 0 0 0 v 0.0 0.0 0.0 mag 0.0 
0.5400000000 0.1000000000 0.2900000000 0 0 0 v 0.0 0.0 0.0 mag 0.0 
0.7900000000 0.1000000000 0.2900000000 0 0 0 v 0.0 0.0 0.0 mag 0.0 
0.0400000000 0.1000000000 0.5400000000 0 0 0 v 0.0 0.0 0.0 mag 0.0 
0.2900000000 0.1000000000 0.5400000000 0 0 0 v 0.0 0.0 0.0 mag 0.0 
0.5400000000 0.1000000000 0.5400000000 0 0 0 v 0.0 0.0 0.0 mag 0.0 
0.7900000000 0.1000000000 0.5400000000 0 0 0 v 0.0 0.0 0.0 mag 0.0 
0.0400000000 0.1000000000 0.7900000000 0 0 0 v 0.0 0.0 0.0 mag 0.0 
0.2900000000 0.1000000000 0.7900000000 0 0 0 v 0.0 0.0 0.0 mag 0.0 
0.5400000000 0.1000000000 0.7900000000 0 0 0 v 0.0 0.0 0.0 mag 0.0 
0.7900000000 0.1000000000 0.7900000000 0 0 0 v 0.0 0.0 0.0 mag 0.0 
0.1233330000 0.2235120000 0.2066670000 0 0 0 v 0.0 0.0 0.0 mag 0.0 
0.3733330000 0.2235120000 0.2066670000 0 0 0 v 0.0 0.0 0.0 mag 0.0 
0.6233330000 0.2235120000 0.2066670000 0 0 0 v 0.0 0.0 0.0 mag 0.0 
0.8733330000 0.2235120000 0.2066670000 0 0 0 v 0.0 0.0 0.0 mag 0.0 
0.1233330000 0.2235120000 0.4566670000 0 0 0 v 0.0 0.0 0.0 mag 0.0 
0.3733330000 0.2235120000 0.4566670000 0 0 0 v 0.0 0.0 0.0 mag 0.0 
0.6233330000 0.2235120000 0.4566670000 0 0 0 v 0.0 0.0 0.0 mag 0.0 
0.8733330000 0.2235120000 0.4566670000 0 0 0 v 0.0 0.0 0.0 mag 0.0 
0.1233330000 0.2235120000 0.7066670000 0 0 0 v 0.0 0.0 0.0 mag 0.0 
0.3733330000 0.2235120000 0.7066670000 0 0 0 v 0.0 0.0 0.0 mag 0.0 
0.6233330000 0.2235120000 0.7066670000 0 0 0 v 0.0 0.0 0.0 mag 0.0 
0.8733330000 0.2235120000 0.7066670000 0 0 0 v 0.0 0.0 0.0 mag 0.0 
0.1233330000 0.2235120000 0.9566670000 0 0 0 v 0.0 0.0 0.0 mag 0.0 
0.3733330000 0.2235120000 0.9566670000 0 0 0 v 0.0 0.0 0.0 mag 0.0 
0.6233330000 0.2235120000 0.9566670000 0 0 0 v 0.0 0.0 0.0 mag 0.0 
0.8733330000 0.2235120000 0.9566670000 0 0 0 v 0.0 0.0 0.0 mag 0.0 
0.2080050000 0.3462480000 0.1237420000 1 1 1 v 0.0 0.0 0.0 mag 0.0 
0.4567500000 0.3464150000 0.1237140000 1 1 1 v 0.0 0.0 0.0 mag 0.0 
0.7064170000 0.3472240000 0.1237240000 1 1 1 v 0.0 0.0 0.0 mag 0.0 
0.9567330000 0.3471280000 0.1234360000 1 1 1 v 0.0 0.0 0.0 mag 0.0 
0.2061370000 0.3472720000 0.3719620000 1 1 1 v 0.0 0.0 0.0 mag 0.0 
0.4571750000 0.3493170000 0.3771500000 1 1 1 v 0.0 0.0 0.0 mag 0.0 
0.7062220000 0.3468130000 0.3738940000 1 1 1 v 0.0 0.0 0.0 mag 0.0 
0.9564410000 0.3472080000 0.3737520000 1 1 1 v 0.0 0.0 0.0 mag 0.0 
0.2084370000 0.3483450000 0.6223450000 1 1 1 v 0.0 0.0 0.0 mag 0.0 
0.4566310000 0.3481990000 0.6235730000 1 1 1 v 0.0 0.0 0.0 mag 0.0 
0.7029960000 0.3493390000 0.6229540000 1 1 1 v 0.0 0.0 0.0 mag 0.0 
0.9564500000 0.3464170000 0.6233800000 1 1 1 v 0.0 0.0 0.0 mag 0.0 
0.2073650000 0.3459410000 0.8727970000 1 1 1 v 0.0 0.0 0.0 mag 0.0 
0.4578340000 0.3483600000 0.8717690000 1 1 1 v 0.0 0.0 0.0 mag 0.0 
0.7081840000 0.3472760000 0.8740170000 1 1 1 v 0.0 0.0 0.0 mag 0.0 
0.9564130000 0.3462440000 0.8721490000 1 1 1 v 0.0 0.0 0.0 mag 0.0 
0.0413250000 0.4741420000 0.0389900000 1 1 1 v 0.0 0.0 0.0 mag 0.0 
0.2904290000 0.4734510000 0.0392100000 1 1 1 v 0.0 0.0 0.0 mag 0.0 
0.5401540000 0.4735560000 0.0437890000 1 1 1 v 0.0 0.0 0.0 mag 0.0 
0.7936370000 0.4745570000 0.0443850000 1 1 1 v 0.0 0.0 0.0 mag 0.0 
0.0360220000 0.4745710000 0.2867650000 1 1 1 v 0.0 0.0 0.0 mag 0.0 
0.2860860000 0.4744360000 0.2838110000 1 1 1 v 0.0 0.0 0.0 mag 0.0 
0.5392840000 0.4738020000 0.2918640000 1 1 1 v 0.0 0.0 0.0 mag 0.0 
0.7887030000 0.4737670000 0.2916040000 1 1 1 v 0.0 0.0 0.0 mag 0.0 
0.0366260000 0.4735520000 0.5400750000 1 1 1 v 0.0 0.0 0.0 mag 0.0 
0.2785440000 0.4765690000 0.5338170000 1 1 1 v 0.0 0.0 0.0 mag 0.0 
0.5403180000 0.4854120000 0.5399590000 1 1 1 v 0.0 0.0 0.0 mag 0.0 
0.7884160000 0.4737850000 0.5409510000 1 1 1 v 0.0 0.0 0.0 mag 0.0 
0.0409540000 0.4734290000 0.7897040000 1 1 1 v 0.0 0.0 0.0 mag 0.0 
0.2897700000 0.4738880000 0.7904730000 1 1 1 v 0.0 0.0 0.0 mag 0.0 
0.5464950000 0.4765920000 0.8020220000 1 1 1 v 0.0 0.0 0.0 mag 0.0 
0.7964620000 0.4744080000 0.7942410000 1 1 1 v 0.0 0.0 0.0 mag 0.0 

