ATOMIC_SPECIES
Cu 63.546 Cu_ONCV_PBE-1.0.upf upf201
N 14.007 N_ONCV_PBE-1.0.upf upf201

NUMERICAL_ORBITAL
Cu_gga_8au_100Ry_4s2p2d1f.orb
N_gga_7au_100Ry_2s2p1d.orb

LATTICE_CONSTANT
1.889726

LATTICE_VECTORS
   10.2106205815     0.0000000000     0.0000000000 #latvec1
    0.0000000000    30.2526987600     0.0000000000 #latvec2
    5.1053097907     0.0000000000     8.8426566375 #latvec3

ATOMIC_POSITIONS
Direct

Cu #label
0 #magnetism
64 #number of atoms
    0.0500000000     0.3966590000     0.0500000000 m  0  0  0
    0.3000000000     0.3966590000     0.0500000000 m  0  0  0
    0.5500000000     0.3966590000     0.0500000000 m  0  0  0
    0.8000000000     0.3966590000     0.0500000000 m  0  0  0
    0.0500000000     0.3966590000     0.3000000000 m  0  0  0
    0.3000000000     0.3966590000     0.3000000000 m  0  0  0
    0.5500000000     0.3966590000     0.3000000000 m  0  0  0
    0.8000000000     0.3966590000     0.3000000000 m  0  0  0
    0.0500000000     0.3966590000     0.5500000000 m  0  0  0
    0.3000000000     0.3966590000     0.5500000000 m  0  0  0
    0.5500000000     0.3966590000     0.5500000000 m  0  0  0
    0.8000000000     0.3966590000     0.5500000000 m  0  0  0
    0.0500000000     0.3966590000     0.8000000000 m  0  0  0
    0.3000000000     0.3966590000     0.8000000000 m  0  0  0
    0.5500000000     0.3966590000     0.8000000000 m  0  0  0
    0.8000000000     0.3966590000     0.8000000000 m  0  0  0
    0.1333330000     0.4655530000     0.1333330000 m  0  0  0
    0.3833330000     0.4655530000     0.1333330000 m  0  0  0
    0.6333330000     0.4655530000     0.1333330000 m  0  0  0
    0.8833330000     0.4655530000     0.1333330000 m  0  0  0
    0.1333330000     0.4655530000     0.3833330000 m  0  0  0
    0.3833330000     0.4655530000     0.3833330000 m  0  0  0
    0.6333330000     0.4655530000     0.3833330000 m  0  0  0
    0.8833330000     0.4655530000     0.3833330000 m  0  0  0
    0.1333330000     0.4655530000     0.6333330000 m  0  0  0
    0.3833330000     0.4655530000     0.6333330000 m  0  0  0
    0.6333330000     0.4655530000     0.6333330000 m  0  0  0
    0.8833330000     0.4655530000     0.6333330000 m  0  0  0
    0.1333330000     0.4655530000     0.8833330000 m  0  0  0
    0.3833330000     0.4655530000     0.8833330000 m  0  0  0
    0.6333330000     0.4655530000     0.8833330000 m  0  0  0
    0.8833330000     0.4655530000     0.8833330000 m  0  0  0
    0.9664420000     0.5323330000     0.2169100000 m  1  1  1
    0.2164240000     0.5323270000     0.2164240000 m  1  1  1
    0.4665210000     0.5323070000     0.2164110000 m  1  1  1
    0.7165750000     0.5323020000     0.2168590000 m  1  1  1
    0.9668940000     0.5322330000     0.4667390000 m  1  1  1
    0.2164110000     0.5323070000     0.4665210000 m  1  1  1
    0.4667240000     0.5323270000     0.4667240000 m  1  1  1
    0.7163340000     0.5322300000     0.4669030000 m  1  1  1
    0.9668860000     0.5323180000     0.7167410000 m  1  1  1
    0.2168590000     0.5323020000     0.7165750000 m  1  1  1
    0.4669030000     0.5322300000     0.7163340000 m  1  1  1
    0.7170390000     0.5321570000     0.7170390000 m  1  1  1
    0.9668790000     0.5322580000     0.9668790000 m  1  1  1
    0.2169100000     0.5323330000     0.9664420000 m  1  1  1
    0.4667390000     0.5322330000     0.9668940000 m  1  1  1
    0.7167410000     0.5323180000     0.9668860000 m  1  1  1
    0.0503350000     0.5995390000     0.0503350000 m  1  1  1
    0.2999270000     0.5997740000     0.0501390000 m  1  1  1
    0.5502630000     0.5996770000     0.0498350000 m  1  1  1
    0.8002400000     0.5995810000     0.0503180000 m  1  1  1
    0.0501390000     0.5997740000     0.2999270000 m  1  1  1
    0.2997550000     0.5996360000     0.2997550000 m  1  1  1
    0.5498500000     0.5996230000     0.2998080000 m  1  1  1
    0.7995620000     0.5997040000     0.3004470000 m  1  1  1
    0.0498350000     0.5996770000     0.5502630000 m  1  1  1
    0.2998080000     0.5996230000     0.5498500000 m  1  1  1
    0.5499100000     0.5996270000     0.5499100000 m  1  1  1
    0.7999720000     0.5991880000     0.5501880000 m  1  1  1
    0.0503180000     0.5995810000     0.8002400000 m  1  1  1
    0.3004470000     0.5997040000     0.7995620000 m  1  1  1
    0.5501880000     0.5991880000     0.7999720000 m  1  1  1
    0.8003230000     0.5996810000     0.8003230000 m  1  1  1

N #label
0 #magnetism
2 #number of atoms
    0.6390050000     0.7120630000     0.6390050000 m  1  1  1
    0.7013350000     0.7124820000     0.7013350000 m  1  1  1
