ATOMIC_SPECIES
C   12.011        C_ONCV_PBE-1.0.upf
O   15.999        O_ONCV_PBE-1.0.upf
Pt  195.084       Pt_ONCV_PBE-1.0.upf

NUMERICAL_ORBITAL
C_gga_7au_100Ry_2s2p1d.orb
O_gga_7au_100Ry_2s2p1d.orb
Pt_gga_7au_100Ry_4s2p2d1f.orb

LATTICE_CONSTANT
1.8897261258369282 

LATTICE_VECTORS
11.187400000      0.0000000000      0.0000000000      
0.0000000000      18.850900000      0.0000000000      
-5.593700000      0.0000000000      9.6885700000      

ATOMIC_POSITIONS
Direct

C
0.0000000000
1
0.5160300000 0.4424090000 0.6323890000 1 1 1 v 0.0 0.0 0.0 mag 0.0 

O
0.0000000000
1
0.5006760000 0.5046040000 0.6246600000 1 1 1 v 0.0 0.0 0.0 mag 0.0 

Pt
0.0000000000
64
0.0445520000 0.0000000000 0.0222760000 0 0 0 v 0.0 0.0 0.0 mag 0.0 
0.2945520000 0.0000000000 0.0222760000 0 0 0 v 0.0 0.0 0.0 mag 0.0 
0.5445520000 0.0000000000 0.0222760000 0 0 0 v 0.0 0.0 0.0 mag 0.0 
0.7945520000 0.0000000000 0.0222760000 0 0 0 v 0.0 0.0 0.0 mag 0.0 
0.0445520000 0.0000000000 0.2722760000 0 0 0 v 0.0 0.0 0.0 mag 0.0 
0.2945520000 0.0000000000 0.2722760000 0 0 0 v 0.0 0.0 0.0 mag 0.0 
0.5445520000 0.0000000000 0.2722760000 0 0 0 v 0.0 0.0 0.0 mag 0.0 
0.7945520000 0.0000000000 0.2722760000 0 0 0 v 0.0 0.0 0.0 mag 0.0 
0.2945520000 0.0000000000 0.5222760000 0 0 0 v 0.0 0.0 0.0 mag 0.0 
0.5445520000 0.0000000000 0.5222760000 0 0 0 v 0.0 0.0 0.0 mag 0.0 
0.7945520000 0.0000000000 0.5222760000 0 0 0 v 0.0 0.0 0.0 mag 0.0 
0.0445520000 0.0000000000 0.5222760000 0 0 0 v 0.0 0.0 0.0 mag 0.0 
0.0445520000 0.0000000000 0.7722760000 0 0 0 v 0.0 0.0 0.0 mag 0.0 
0.2945520000 0.0000000000 0.7722760000 0 0 0 v 0.0 0.0 0.0 mag 0.0 
0.5445520000 0.0000000000 0.7722760000 0 0 0 v 0.0 0.0 0.0 mag 0.0 
0.7945520000 0.0000000000 0.7722760000 0 0 0 v 0.0 0.0 0.0 mag 0.0 
0.8779650000 0.1207150000 0.1886480000 1 1 1 v 0.0 0.0 0.0 mag 0.0 
0.8779570000 0.1207240000 0.4389400000 1 1 1 v 0.0 0.0 0.0 mag 0.0 
0.8775220000 0.1202250000 0.9385470000 1 1 1 v 0.0 0.0 0.0 mag 0.0 
0.6281690000 0.1206870000 0.1889140000 1 1 1 v 0.0 0.0 0.0 mag 0.0 
0.3784260000 0.1205540000 0.1887610000 1 1 1 v 0.0 0.0 0.0 mag 0.0 
0.1282790000 0.1205360000 0.1887300000 1 1 1 v 0.0 0.0 0.0 mag 0.0 
0.8775170000 0.1202260000 0.6886260000 1 1 1 v 0.0 0.0 0.0 mag 0.0 
0.1283460000 0.1206250000 0.9390320000 1 1 1 v 0.0 0.0 0.0 mag 0.0 
0.6274820000 0.1214820000 0.4390180000 1 1 1 v 0.0 0.0 0.0 mag 0.0 
0.3784350000 0.1205450000 0.9393790000 1 1 1 v 0.0 0.0 0.0 mag 0.0 
0.1285630000 0.1205480000 0.4391020000 1 1 1 v 0.0 0.0 0.0 mag 0.0 
0.6274970000 0.1214780000 0.9381240000 1 1 1 v 0.0 0.0 0.0 mag 0.0 
0.6276580000 0.1218700000 0.6886570000 1 1 1 v 0.0 0.0 0.0 mag 0.0 
0.1282770000 0.1205350000 0.6892290000 1 1 1 v 0.0 0.0 0.0 mag 0.0 
0.3784100000 0.1211370000 0.4387830000 1 1 1 v 0.0 0.0 0.0 mag 0.0 
0.3784040000 0.1211320000 0.6893110000 1 1 1 v 0.0 0.0 0.0 mag 0.0 
0.9612570000 0.2382480000 0.8553370000 1 1 1 v 0.0 0.0 0.0 mag 0.0 
0.9611200000 0.2388420000 0.1045360000 1 1 1 v 0.0 0.0 0.0 mag 0.0 
0.9611730000 0.2391170000 0.3552560000 1 1 1 v 0.0 0.0 0.0 mag 0.0 
0.4617230000 0.2391760000 0.1055600000 1 1 1 v 0.0 0.0 0.0 mag 0.0 
0.7112510000 0.2393110000 0.1052390000 1 1 1 v 0.0 0.0 0.0 mag 0.0 
0.7112630000 0.2393100000 0.3553960000 1 1 1 v 0.0 0.0 0.0 mag 0.0 
0.9611510000 0.2388410000 0.6059790000 1 1 1 v 0.0 0.0 0.0 mag 0.0 
0.2122410000 0.2386710000 0.1057910000 1 1 1 v 0.0 0.0 0.0 mag 0.0 
0.4625100000 0.2411010000 0.3581350000 1 1 1 v 0.0 0.0 0.0 mag 0.0 
0.2122700000 0.2386690000 0.8558940000 1 1 1 v 0.0 0.0 0.0 mag 0.0 
0.7100270000 0.2407250000 0.8545370000 1 1 1 v 0.0 0.0 0.0 mag 0.0 
0.7100560000 0.2407170000 0.6049280000 1 1 1 v 0.0 0.0 0.0 mag 0.0 
0.2110090000 0.2390410000 0.3550480000 1 1 1 v 0.0 0.0 0.0 mag 0.0 
0.4625040000 0.2411130000 0.8538010000 1 1 1 v 0.0 0.0 0.0 mag 0.0 
0.4608950000 0.2412500000 0.6051770000 1 1 1 v 0.0 0.0 0.0 mag 0.0 
0.2110030000 0.2390450000 0.6053730000 1 1 1 v 0.0 0.0 0.0 mag 0.0 
0.0428480000 0.3598630000 0.2706840000 1 1 1 v 0.0 0.0 0.0 mag 0.0 
0.5445440000 0.3602370000 0.2720270000 1 1 1 v 0.0 0.0 0.0 mag 0.0 
0.0428550000 0.3598710000 0.5213310000 1 1 1 v 0.0 0.0 0.0 mag 0.0 
0.5445420000 0.3602740000 0.0216150000 1 1 1 v 0.0 0.0 0.0 mag 0.0 
0.0451750000 0.3597820000 0.0223700000 1 1 1 v 0.0 0.0 0.0 mag 0.0 
0.7935870000 0.3601480000 0.2713570000 1 1 1 v 0.0 0.0 0.0 mag 0.0 
0.2950890000 0.3598460000 0.0221340000 1 1 1 v 0.0 0.0 0.0 mag 0.0 
0.8004120000 0.3591040000 0.7748340000 1 1 1 v 0.0 0.0 0.0 mag 0.0 
0.7951630000 0.3600180000 0.0224460000 1 1 1 v 0.0 0.0 0.0 mag 0.0 
0.7952170000 0.3599930000 0.5219250000 1 1 1 v 0.0 0.0 0.0 mag 0.0 
0.0452040000 0.3597680000 0.7720580000 1 1 1 v 0.0 0.0 0.0 mag 0.0 
0.2927350000 0.3596000000 0.2692670000 1 1 1 v 0.0 0.0 0.0 mag 0.0 
0.5428090000 0.3675820000 0.5194960000 1 1 1 v 0.0 0.0 0.0 mag 0.0 
0.5428210000 0.3676720000 0.7723290000 1 1 1 v 0.0 0.0 0.0 mag 0.0 
0.2927780000 0.3596390000 0.7726580000 1 1 1 v 0.0 0.0 0.0 mag 0.0 
0.2869730000 0.3599720000 0.5180880000 1 1 1 v 0.0 0.0 0.0 mag 0.0 

