ATOMIC_SPECIES
C   12.011        C_ONCV_PBE-1.0.upf
O   15.999        O_ONCV_PBE-1.0.upf
Pt  195.084       Pt_ONCV_PBE-1.0.upf

NUMERICAL_ORBITAL
C_gga_7au_100Ry_2s2p1d.orb
O_gga_7au_100Ry_2s2p1d.orb
Pt_gga_7au_100Ry_4s2p2d1f.orb

LATTICE_CONSTANT
1.889726

LATTICE_VECTORS
11.187398000      0.0000000000      0.0000000000      
0.0000000000      18.850897000      0.0000000000      
-5.593699000      0.0000000000      9.6885710000      

ATOMIC_POSITIONS
Direct

C
0.0000000000
1
0.4511750000 0.4360190000 0.6968410000 1 1 1 mag 0.0 

O
0.0000000000
1
0.4590610000 0.4685010000 0.4983960000 1 1 1 mag 0.0 

Pt
0.0000000000
64
0.0451300000 0.9998580000 0.0225340000 0 0 0 mag 0.0 
0.2948910000 0.9997610000 0.0224650000 0 0 0 mag 0.0 
0.5449490000 0.9996410000 0.0225310000 0 0 0 mag 0.0 
0.7951170000 0.9996830000 0.0225880000 0 0 0 mag 0.0 
0.0450280000 0.9997840000 0.2725340000 0 0 0 mag 0.0 
0.2949110000 0.9997290000 0.2724480000 0 0 0 mag 0.0 
0.5449550000 0.9997050000 0.2725430000 0 0 0 mag 0.0 
0.7950460000 0.9997720000 0.2725850000 0 0 0 mag 0.0 
0.2948930000 0.9996970000 0.5224350000 0 0 0 mag 0.0 
0.5449720000 0.9996430000 0.5224680000 0 0 0 mag 0.0 
0.7950750000 0.9997970000 0.5225400000 0 0 0 mag 0.0 
0.0449850000 0.9998330000 0.5224850000 0 0 0 mag 0.0 
0.0451040000 0.9999270000 0.7725090000 0 0 0 mag 0.0 
0.2948860000 0.9997110000 0.7724540000 0 0 0 mag 0.0 
0.5449710000 0.9995850000 0.7724920000 0 0 0 mag 0.0 
0.7951420000 0.9997080000 0.7725370000 0 0 0 mag 0.0 
0.8788770000 0.1200560000 0.1896510000 1 1 1 mag 0.0 
0.8790380000 0.1203130000 0.4397270000 1 1 1 mag 0.0 
0.8790710000 0.1200970000 0.9395350000 1 1 1 mag 0.0 
0.6282100000 0.1200250000 0.1891310000 1 1 1 mag 0.0 
0.3784740000 0.1200450000 0.1894720000 1 1 1 mag 0.0 
0.1292260000 0.1203670000 0.1897090000 1 1 1 mag 0.0 
0.8787310000 0.1205970000 0.6893280000 1 1 1 mag 0.0 
0.1290130000 0.1206190000 0.9396140000 1 1 1 mag 0.0 
0.6281360000 0.1203910000 0.4396800000 1 1 1 mag 0.0 
0.3782160000 0.1202990000 0.9387030000 1 1 1 mag 0.0 
0.1297190000 0.1205760000 0.4400320000 1 1 1 mag 0.0 
0.6279240000 0.1203190000 0.9383030000 1 1 1 mag 0.0 
0.6282210000 0.1208930000 0.6891760000 1 1 1 mag 0.0 
0.1293510000 0.1208700000 0.6894490000 1 1 1 mag 0.0 
0.3786300000 0.1209920000 0.4398360000 1 1 1 mag 0.0 
0.3786010000 0.1216340000 0.6889260000 1 1 1 mag 0.0 
0.9619260000 0.2386330000 0.8558440000 1 1 1 mag 0.0 
0.9628400000 0.2381040000 0.1063960000 1 1 1 mag 0.0 
0.9624560000 0.2381680000 0.3564140000 1 1 1 mag 0.0 
0.4617560000 0.2380210000 0.1057160000 1 1 1 mag 0.0 
0.7121000000 0.2380380000 0.1058940000 1 1 1 mag 0.0 
0.7122850000 0.2381220000 0.3564650000 1 1 1 mag 0.0 
0.9632410000 0.2387270000 0.6066760000 1 1 1 mag 0.0 
0.2132140000 0.2392680000 0.1080740000 1 1 1 mag 0.0 
0.4623010000 0.2393150000 0.3572950000 1 1 1 mag 0.0 
0.2125540000 0.2393720000 0.8554210000 1 1 1 mag 0.0 
0.7126830000 0.2389710000 0.8560890000 1 1 1 mag 0.0 
0.7113690000 0.2399360000 0.6059510000 1 1 1 mag 0.0 
0.2128180000 0.2401210000 0.3572850000 1 1 1 mag 0.0 
0.4617800000 0.2401440000 0.8549810000 1 1 1 mag 0.0 
0.4619400000 0.2415790000 0.6062260000 1 1 1 mag 0.0 
0.2135610000 0.2416060000 0.6057830000 1 1 1 mag 0.0 
0.0409020000 0.3588270000 0.2694010000 1 1 1 mag 0.0 
0.5472080000 0.3581290000 0.2717610000 1 1 1 mag 0.0 
0.0407080000 0.3590890000 0.5206540000 1 1 1 mag 0.0 
0.5474980000 0.3586190000 0.0260050000 1 1 1 mag 0.0 
0.0455240000 0.3598950000 0.0225190000 1 1 1 mag 0.0 
0.7948930000 0.3591730000 0.2722610000 1 1 1 mag 0.0 
0.2953610000 0.3594870000 0.0234400000 1 1 1 mag 0.0 
0.8015050000 0.3618090000 0.7757770000 1 1 1 mag 0.0 
0.7994460000 0.3593910000 0.0271500000 1 1 1 mag 0.0 
0.7982610000 0.3594180000 0.5220120000 1 1 1 mag 0.0 
0.0452160000 0.3603420000 0.7724180000 1 1 1 mag 0.0 
0.2928310000 0.3607200000 0.2645830000 1 1 1 mag 0.0 
0.5567800000 0.3589720000 0.5260240000 1 1 1 mag 0.0 
0.5647840000 0.3563720000 0.7853360000 1 1 1 mag 0.0 
0.2907890000 0.3632050000 0.7800380000 1 1 1 mag 0.0 
0.2845460000 0.3638760000 0.5135160000 1 1 1 mag 0.0 

