INPUT_PARAMETERS
# Created by Atomic Simulation Enviroment
calculation                             scf
nspin                                   2
ecutwfc                                 100
ks_solver                               genelpa
symmetry                                1
symmetry_autoclose                      1
vdw_method                              none
smearing_method                         gaussian
smearing_sigma                          0.001
basis_type                              lcao
mixing_type                             broyden
scf_thr                                 1e-06
scf_nmax                                100
cal_force                               1
cal_stress                              1
out_stru                                1
out_chg                                 0
out_bandgap                             0
efield_flag                             0
dip_cor_flag                            0
efield_dir                              1
efield_pos_max                          0.8
ntype                                   2
dft_functional                          pbe
