ATOMIC_SPECIES
Li  6.94          Li_ONCV_PBE-1.2.upf
Si  28.085        Si_ONCV_PBE-1.2.upf

NUMERICAL_ORBITAL
Li_gga_8au_100Ry_4s1p.orb
Si_gga_8au_100Ry_2s2p1d.orb

LATTICE_CONSTANT
1.8897261258369282 

LATTICE_VECTORS
10.862000000      0.0000000000      0.0000000000      
0.0000000000      10.862000000      0.0000000000      
0.0000000000      0.0000000000      10.862000000      

ATOMIC_POSITIONS
Direct

Li
0.0000000000
1
0.5964540000 0.5964520000 0.5964540000 1 1 1 v 0.0 0.0 0.0 mag 0.0 

Si
0.0000000000
64
0.1280950000 0.3771040000 0.1280950000 1 1 1 v 0.0 0.0 0.0 mag 0.0 
0.1270380000 0.3775030000 0.6274000000 1 1 1 v 0.0 0.0 0.0 mag 0.0 
0.1264270000 0.8777620000 0.1264300000 1 1 1 v 0.0 0.0 0.0 mag 0.0 
0.1267820000 0.8775990000 0.6273770000 1 1 1 v 0.0 0.0 0.0 mag 0.0 
0.6274000000 0.3775030000 0.1270360000 1 1 1 v 0.0 0.0 0.0 mag 0.0 
0.6291540000 0.3722110000 0.6291530000 1 1 1 v 0.0 0.0 0.0 mag 0.0 
0.6273730000 0.8776000000 0.1267840000 1 1 1 v 0.0 0.0 0.0 mag 0.0 
0.6258900000 0.8775090000 0.6258920000 1 1 1 v 0.0 0.0 0.0 mag 0.0 
0.0031150000 0.0031170000 0.2522940000 1 1 1 v 0.0 0.0 0.0 mag 0.0 
0.0016500000 0.0016540000 0.7524740000 1 1 1 v 0.0 0.0 0.0 mag 0.0 
0.0031740000 0.5030170000 0.2513230000 1 1 1 v 0.0 0.0 0.0 mag 0.0 
0.0023350000 0.5023200000 0.7524700000 1 1 1 v 0.0 0.0 0.0 mag 0.0 
0.5030170000 0.0031750000 0.2513280000 1 1 1 v 0.0 0.0 0.0 mag 0.0 
0.5023150000 0.0023370000 0.7524740000 1 1 1 v 0.0 0.0 0.0 mag 0.0 
0.5025220000 0.5025210000 0.2516450000 1 1 1 v 0.0 0.0 0.0 mag 0.0 
0.4964850000 0.4964910000 0.7588190000 1 1 1 v 0.0 0.0 0.0 mag 0.0 
0.1280970000 0.1280940000 0.3771050000 1 1 1 v 0.0 0.0 0.0 mag 0.0 
0.1264250000 0.1264310000 0.8777630000 1 1 1 v 0.0 0.0 0.0 mag 0.0 
0.1270350000 0.6273990000 0.3775030000 1 1 1 v 0.0 0.0 0.0 mag 0.0 
0.1267810000 0.6273760000 0.8776000000 1 1 1 v 0.0 0.0 0.0 mag 0.0 
0.6274020000 0.1270410000 0.3774990000 1 1 1 v 0.0 0.0 0.0 mag 0.0 
0.6273740000 0.1267850000 0.8775970000 1 1 1 v 0.0 0.0 0.0 mag 0.0 
0.6291540000 0.6291540000 0.3722100000 1 1 1 v 0.0 0.0 0.0 mag 0.0 
0.6258840000 0.6258990000 0.8775030000 1 1 1 v 0.0 0.0 0.0 mag 0.0 
0.0031120000 0.2522980000 0.0031140000 1 1 1 v 0.0 0.0 0.0 mag 0.0 
0.0031750000 0.2513270000 0.5030150000 1 1 1 v 0.0 0.0 0.0 mag 0.0 
0.0016510000 0.7524760000 0.0016520000 1 1 1 v 0.0 0.0 0.0 mag 0.0 
0.0023340000 0.7524720000 0.5023190000 1 1 1 v 0.0 0.0 0.0 mag 0.0 
0.5030170000 0.2513260000 0.0031740000 1 1 1 v 0.0 0.0 0.0 mag 0.0 
0.5025220000 0.2516430000 0.5025210000 1 1 1 v 0.0 0.0 0.0 mag 0.0 
0.5023120000 0.7524760000 0.0023400000 1 1 1 v 0.0 0.0 0.0 mag 0.0 
0.4964870000 0.7588200000 0.4964910000 1 1 1 v 0.0 0.0 0.0 mag 0.0 
0.3786540000 0.3786530000 0.3786530000 1 1 1 v 0.0 0.0 0.0 mag 0.0 
0.3722610000 0.3722640000 0.8811540000 1 1 1 v 0.0 0.0 0.0 mag 0.0 
0.3722610000 0.8811550000 0.3722650000 1 1 1 v 0.0 0.0 0.0 mag 0.0 
0.3779010000 0.8787900000 0.8787900000 1 1 1 v 0.0 0.0 0.0 mag 0.0 
0.8811530000 0.3722650000 0.3722610000 1 1 1 v 0.0 0.0 0.0 mag 0.0 
0.8787840000 0.3779100000 0.8787840000 1 1 1 v 0.0 0.0 0.0 mag 0.0 
0.8787860000 0.8787880000 0.3779050000 1 1 1 v 0.0 0.0 0.0 mag 0.0 
0.8763460000 0.8763500000 0.8763490000 1 1 1 v 0.0 0.0 0.0 mag 0.0 
0.2522890000 0.0031190000 0.0031170000 1 1 1 v 0.0 0.0 0.0 mag 0.0 
0.2513240000 0.0031740000 0.5030200000 1 1 1 v 0.0 0.0 0.0 mag 0.0 
0.2513240000 0.5030180000 0.0031750000 1 1 1 v 0.0 0.0 0.0 mag 0.0 
0.2516450000 0.5025210000 0.5025210000 1 1 1 v 0.0 0.0 0.0 mag 0.0 
0.7524720000 0.0016550000 0.0016530000 1 1 1 v 0.0 0.0 0.0 mag 0.0 
0.7524710000 0.0023390000 0.5023160000 1 1 1 v 0.0 0.0 0.0 mag 0.0 
0.7524680000 0.5023230000 0.0023320000 1 1 1 v 0.0 0.0 0.0 mag 0.0 
0.7588190000 0.4964900000 0.4964860000 1 1 1 v 0.0 0.0 0.0 mag 0.0 
0.3771050000 0.1280950000 0.1280950000 1 1 1 v 0.0 0.0 0.0 mag 0.0 
0.3775000000 0.1270390000 0.6274020000 1 1 1 v 0.0 0.0 0.0 mag 0.0 
0.3774990000 0.6274010000 0.1270410000 1 1 1 v 0.0 0.0 0.0 mag 0.0 
0.3722080000 0.6291540000 0.6291560000 1 1 1 v 0.0 0.0 0.0 mag 0.0 
0.8777640000 0.1264290000 0.1264260000 1 1 1 v 0.0 0.0 0.0 mag 0.0 
0.8775990000 0.1267850000 0.6273720000 1 1 1 v 0.0 0.0 0.0 mag 0.0 
0.8775970000 0.6273770000 0.1267820000 1 1 1 v 0.0 0.0 0.0 mag 0.0 
0.8774980000 0.6258940000 0.6258920000 1 1 1 v 0.0 0.0 0.0 mag 0.0 
0.2536550000 0.2536550000 0.2536550000 1 1 1 v 0.0 0.0 0.0 mag 0.0 
0.2503830000 0.2503870000 0.7514630000 1 1 1 v 0.0 0.0 0.0 mag 0.0 
0.2503830000 0.7514610000 0.2503890000 1 1 1 v 0.0 0.0 0.0 mag 0.0 
0.2509060000 0.7552860000 0.7552890000 1 1 1 v 0.0 0.0 0.0 mag 0.0 
0.7514640000 0.2503870000 0.2503820000 1 1 1 v 0.0 0.0 0.0 mag 0.0 
0.7552870000 0.2509060000 0.7552850000 1 1 1 v 0.0 0.0 0.0 mag 0.0 
0.7552860000 0.7552870000 0.2509060000 1 1 1 v 0.0 0.0 0.0 mag 0.0 
0.7509680000 0.7509770000 0.7509730000 1 1 1 v 0.0 0.0 0.0 mag 0.0 

