ATOMIC_SPECIES
C   12.011        C_ONCV_PBE-1.0.upf
Pt  195.084       Pt_ONCV_PBE-1.0.upf
H   1.008         H_ONCV_PBE-1.0.upf

NUMERICAL_ORBITAL
C_gga_7au_100Ry_2s2p1d.orb
Pt_gga_7au_100Ry_4s2p2d1f.orb
H_gga_6au_100Ry_2s1p.orb

LATTICE_CONSTANT
1.8897261258369282 

LATTICE_VECTORS
12.322700000      0.0000000000      0.0000000000      
0.0000000000      20.000000000      0.0000000000      
-6.161540000      0.0000000000      10.671500000      

ATOMIC_POSITIONS
Direct

C
0.0000000000
54
0.0317990000 0.4930360000 0.0314470000 1 1 1 v 0.0 0.0 0.0 mag 0.0 
0.1657530000 0.4924570000 0.1003220000 1 1 1 v 0.0 0.0 0.0 mag 0.0 
0.2343770000 0.4921940000 0.0361590000 1 1 1 v 0.0 0.0 0.0 mag 0.0 
0.3683500000 0.4945330000 0.1048350000 1 1 1 v 0.0 0.0 0.0 mag 0.0 
0.4336040000 0.4921360000 0.0361760000 1 1 1 v 0.0 0.0 0.0 mag 0.0 
0.5663270000 0.4933120000 0.1004690000 1 1 1 v 0.0 0.0 0.0 mag 0.0 
0.6313380000 0.4929920000 0.0315300000 1 1 1 v 0.0 0.0 0.0 mag 0.0 
0.7640900000 0.4924760000 0.0957530000 1 1 1 v 0.0 0.0 0.0 mag 0.0 
0.8293600000 0.4948110000 0.0270950000 1 1 1 v 0.0 0.0 0.0 mag 0.0 
0.9632860000 0.4921340000 0.0957380000 1 1 1 v 0.0 0.0 0.0 mag 0.0 
0.0295770000 0.4879200000 0.2292620000 1 1 1 v 0.0 0.0 0.0 mag 0.0 
0.1623060000 0.4886280000 0.2972800000 1 1 1 v 0.0 0.0 0.0 mag 0.0 
0.2315090000 0.4933370000 0.2337720000 1 1 1 v 0.0 0.0 0.0 mag 0.0 
0.3650040000 0.5005850000 0.3039480000 1 1 1 v 0.0 0.0 0.0 mag 0.0 
0.4349300000 0.5006450000 0.2384180000 1 1 1 v 0.0 0.0 0.0 mag 0.0 
0.5702400000 0.5023500000 0.3041650000 1 1 1 v 0.0 0.0 0.0 mag 0.0 
0.6338010000 0.4958660000 0.2340360000 1 1 1 v 0.0 0.0 0.0 mag 0.0 
0.7667120000 0.4919340000 0.2976500000 1 1 1 v 0.0 0.0 0.0 mag 0.0 
0.8312290000 0.4893480000 0.2294980000 1 1 1 v 0.0 0.0 0.0 mag 0.0 
0.9640550000 0.4858700000 0.2966680000 1 1 1 v 0.0 0.0 0.0 mag 0.0 
0.0310640000 0.4826150000 0.4307470000 1 1 1 v 0.0 0.0 0.0 mag 0.0 
0.1626850000 0.4818500000 0.4988880000 1 1 1 v 0.0 0.0 0.0 mag 0.0 
0.2262710000 0.4863240000 0.4306030000 1 1 1 v 0.0 0.0 0.0 mag 0.0 
0.3555510000 0.4950720000 0.4980270000 1 1 1 v 0.0 0.0 0.0 mag 0.0 
0.4229860000 0.5079610000 0.4358600000 1 1 1 v 0.0 0.0 0.0 mag 0.0 
0.6442250000 0.5109660000 0.4362990000 1 1 1 v 0.0 0.0 0.0 mag 0.0 
0.7748030000 0.5008460000 0.4987370000 1 1 1 v 0.0 0.0 0.0 mag 0.0 
0.8362810000 0.4912730000 0.4311040000 1 1 1 v 0.0 0.0 0.0 mag 0.0 
0.9678630000 0.4849480000 0.4990670000 1 1 1 v 0.0 0.0 0.0 mag 0.0 
0.0348420000 0.4848680000 0.6329830000 1 1 1 v 0.0 0.0 0.0 mag 0.0 
0.1664190000 0.4826870000 0.7011420000 1 1 1 v 0.0 0.0 0.0 mag 0.0 
0.2297430000 0.4820160000 0.6328500000 1 1 1 v 0.0 0.0 0.0 mag 0.0 
0.3616350000 0.4866230000 0.7009230000 1 1 1 v 0.0 0.0 0.0 mag 0.0 
0.4232870000 0.4948250000 0.6331430000 1 1 1 v 0.0 0.0 0.0 mag 0.0 
0.5532380000 0.5070050000 0.6953240000 1 1 1 v 0.0 0.0 0.0 mag 0.0 
0.7746480000 0.5126260000 0.6963700000 1 1 1 v 0.0 0.0 0.0 mag 0.0 
0.8425020000 0.5013570000 0.6339200000 1 1 1 v 0.0 0.0 0.0 mag 0.0 
0.9714550000 0.4912110000 0.7011510000 1 1 1 v 0.0 0.0 0.0 mag 0.0 
0.0353560000 0.4919180000 0.8345190000 1 1 1 v 0.0 0.0 0.0 mag 0.0 
0.1680170000 0.4892680000 0.9025240000 1 1 1 v 0.0 0.0 0.0 mag 0.0 
0.2335350000 0.4859160000 0.8352360000 1 1 1 v 0.0 0.0 0.0 mag 0.0 
0.3664910000 0.4880600000 0.9024950000 1 1 1 v 0.0 0.0 0.0 mag 0.0 
0.4310900000 0.4889890000 0.8343550000 1 1 1 v 0.0 0.0 0.0 mag 0.0 
0.5639150000 0.4937790000 0.8979200000 1 1 1 v 0.0 0.0 0.0 mag 0.0 
0.6274600000 0.5003870000 0.8277780000 1 1 1 v 0.0 0.0 0.0 mag 0.0 
0.7627190000 0.5010580000 0.8935190000 1 1 1 v 0.0 0.0 0.0 mag 0.0 
0.8326480000 0.5033580000 0.8279980000 1 1 1 v 0.0 0.0 0.0 mag 0.0 
0.9661380000 0.4959720000 0.8980720000 1 1 1 v 0.0 0.0 0.0 mag 0.0 
0.5941590000 0.6909130000 0.5516630000 1 1 1 v 0.0 0.0 0.0 mag 0.0 
0.7320810000 0.7104620000 0.6284090000 1 1 1 v 0.0 0.0 0.0 mag 0.0 
0.7445620000 0.7844020000 0.6648680000 1 1 1 v 0.0 0.0 0.0 mag 0.0 
0.6736530000 0.8004510000 0.7344010000 1 1 1 v 0.0 0.0 0.0 mag 0.0 
0.5364400000 0.7780250000 0.6605680000 1 1 1 v 0.0 0.0 0.0 mag 0.0 
0.5257400000 0.7041570000 0.6241070000 1 1 1 v 0.0 0.0 0.0 mag 0.0 

Pt
0.0000000000
1
0.5979220000 0.5281730000 0.5660420000 1 1 1 v 0.0 0.0 0.0 mag 0.0 

H
0.0000000000
12
0.4897280000 0.7874630000 0.7152500000 1 1 1 v 0.0 0.0 0.0 mag 0.0 
0.5486580000 0.7187070000 0.4624910000 1 1 1 v 0.0 0.0 0.0 mag 0.0 
0.7808600000 0.6997730000 0.5761490000 1 1 1 v 0.0 0.0 0.0 mag 0.0 
0.7775130000 0.6793610000 0.7137190000 1 1 1 v 0.0 0.0 0.0 mag 0.0 
0.8437770000 0.7983650000 0.7225080000 1 1 1 v 0.0 0.0 0.0 mag 0.0 
0.7061650000 0.8149280000 0.5789910000 1 1 1 v 0.0 0.0 0.0 mag 0.0 
0.6789600000 0.8542980000 0.7544200000 1 1 1 v 0.0 0.0 0.0 mag 0.0 
0.7200260000 0.7747970000 0.8258290000 1 1 1 v 0.0 0.0 0.0 mag 0.0 
0.4865220000 0.8082270000 0.5744950000 1 1 1 v 0.0 0.0 0.0 mag 0.0 
0.4270020000 0.6888780000 0.5688150000 1 1 1 v 0.0 0.0 0.0 mag 0.0 
0.5680090000 0.6730060000 0.7094210000 1 1 1 v 0.0 0.0 0.0 mag 0.0 
0.5859100000 0.6372120000 0.5253900000 1 1 1 v 0.0 0.0 0.0 mag 0.0 

