ATOMIC_SPECIES
C   12.011        C_ONCV_PBE-1.0.upf
O   15.999        O_ONCV_PBE-1.0.upf
Pt  195.084       Pt_ONCV_PBE-1.0.upf

NUMERICAL_ORBITAL
C_gga_7au_100Ry_2s2p1d.orb
O_gga_7au_100Ry_2s2p1d.orb
Pt_gga_7au_100Ry_4s2p2d1f.orb

LATTICE_CONSTANT
1.8897261258369282 

LATTICE_VECTORS
11.187400000      0.0000000000      0.0000000000      
0.0000000000      18.850900000      0.0000000000      
-5.593700000      0.0000000000      9.6885700000      

ATOMIC_POSITIONS
Direct

C
0.0000000000
1
0.3940850000 0.4046910000 0.6832030000 1 1 1 v 0.0 0.0 0.0 mag 0.0 

O
0.0000000000
1
0.4229190000 0.4463900000 0.5476550000 1 1 1 v 0.0 0.0 0.0 mag 0.0 

Pt
0.0000000000
64
0.0445520000 0.0000000000 0.0222760000 0 0 0 v 0.0 0.0 0.0 mag 0.0 
0.2945520000 0.0000000000 0.0222760000 0 0 0 v 0.0 0.0 0.0 mag 0.0 
0.5445520000 0.0000000000 0.0222760000 0 0 0 v 0.0 0.0 0.0 mag 0.0 
0.7945520000 0.0000000000 0.0222760000 0 0 0 v 0.0 0.0 0.0 mag 0.0 
0.0445520000 0.0000000000 0.2722760000 0 0 0 v 0.0 0.0 0.0 mag 0.0 
0.2945520000 0.0000000000 0.2722760000 0 0 0 v 0.0 0.0 0.0 mag 0.0 
0.5445520000 0.0000000000 0.2722760000 0 0 0 v 0.0 0.0 0.0 mag 0.0 
0.7945520000 0.0000000000 0.2722760000 0 0 0 v 0.0 0.0 0.0 mag 0.0 
0.2945520000 0.0000000000 0.5222760000 0 0 0 v 0.0 0.0 0.0 mag 0.0 
0.5445520000 0.0000000000 0.5222760000 0 0 0 v 0.0 0.0 0.0 mag 0.0 
0.7945520000 0.0000000000 0.5222760000 0 0 0 v 0.0 0.0 0.0 mag 0.0 
0.0445520000 0.0000000000 0.5222760000 0 0 0 v 0.0 0.0 0.0 mag 0.0 
0.0445520000 0.0000000000 0.7722760000 0 0 0 v 0.0 0.0 0.0 mag 0.0 
0.2945520000 0.0000000000 0.7722760000 0 0 0 v 0.0 0.0 0.0 mag 0.0 
0.5445520000 0.0000000000 0.7722760000 0 0 0 v 0.0 0.0 0.0 mag 0.0 
0.7945520000 0.0000000000 0.7722760000 0 0 0 v 0.0 0.0 0.0 mag 0.0 
0.8783570000 0.1201410000 0.1882440000 1 1 1 v 0.0 0.0 0.0 mag 0.0 
0.8772660000 0.1205560000 0.4378650000 1 1 1 v 0.0 0.0 0.0 mag 0.0 
0.8795160000 0.1198190000 0.9378290000 1 1 1 v 0.0 0.0 0.0 mag 0.0 
0.6274510000 0.1205210000 0.1880110000 1 1 1 v 0.0 0.0 0.0 mag 0.0 
0.3789940000 0.1200790000 0.1894680000 1 1 1 v 0.0 0.0 0.0 mag 0.0 
0.1290380000 0.1200290000 0.1878930000 1 1 1 v 0.0 0.0 0.0 mag 0.0 
0.8764580000 0.1213020000 0.6861810000 1 1 1 v 0.0 0.0 0.0 mag 0.0 
0.1283690000 0.1207290000 0.9367300000 1 1 1 v 0.0 0.0 0.0 mag 0.0 
0.6270130000 0.1220680000 0.4389520000 1 1 1 v 0.0 0.0 0.0 mag 0.0 
0.3771020000 0.1213340000 0.9373440000 1 1 1 v 0.0 0.0 0.0 mag 0.0 
0.1286290000 0.1203680000 0.4395410000 1 1 1 v 0.0 0.0 0.0 mag 0.0 
0.6276240000 0.1203150000 0.9375340000 1 1 1 v 0.0 0.0 0.0 mag 0.0 
0.6277570000 0.1215860000 0.6880100000 1 1 1 v 0.0 0.0 0.0 mag 0.0 
0.1278750000 0.1219290000 0.6880870000 1 1 1 v 0.0 0.0 0.0 mag 0.0 
0.3781330000 0.1214510000 0.4393970000 1 1 1 v 0.0 0.0 0.0 mag 0.0 
0.3777300000 0.1223090000 0.6883320000 1 1 1 v 0.0 0.0 0.0 mag 0.0 
0.9628910000 0.2383370000 0.8530240000 1 1 1 v 0.0 0.0 0.0 mag 0.0 
0.9624200000 0.2373840000 0.1034080000 1 1 1 v 0.0 0.0 0.0 mag 0.0 
0.9601420000 0.2380750000 0.3546630000 1 1 1 v 0.0 0.0 0.0 mag 0.0 
0.4613510000 0.2387190000 0.1060930000 1 1 1 v 0.0 0.0 0.0 mag 0.0 
0.7116110000 0.2383240000 0.1052550000 1 1 1 v 0.0 0.0 0.0 mag 0.0 
0.7102720000 0.2393290000 0.3553120000 1 1 1 v 0.0 0.0 0.0 mag 0.0 
0.9589990000 0.2394780000 0.6039010000 1 1 1 v 0.0 0.0 0.0 mag 0.0 
0.2121040000 0.2374760000 0.1019440000 1 1 1 v 0.0 0.0 0.0 mag 0.0 
0.4601980000 0.2410310000 0.3569730000 1 1 1 v 0.0 0.0 0.0 mag 0.0 
0.2134920000 0.2422750000 0.8510790000 1 1 1 v 0.0 0.0 0.0 mag 0.0 
0.7142400000 0.2381680000 0.8568290000 1 1 1 v 0.0 0.0 0.0 mag 0.0 
0.7061830000 0.2433980000 0.6034740000 1 1 1 v 0.0 0.0 0.0 mag 0.0 
0.2087850000 0.2381130000 0.3535590000 1 1 1 v 0.0 0.0 0.0 mag 0.0 
0.4609970000 0.2408340000 0.8552990000 1 1 1 v 0.0 0.0 0.0 mag 0.0 
0.4616570000 0.2422400000 0.6062430000 1 1 1 v 0.0 0.0 0.0 mag 0.0 
0.2122340000 0.2424040000 0.6035900000 1 1 1 v 0.0 0.0 0.0 mag 0.0 
0.0378520000 0.3581680000 0.2664510000 1 1 1 v 0.0 0.0 0.0 mag 0.0 
0.5442940000 0.3599040000 0.2755320000 1 1 1 v 0.0 0.0 0.0 mag 0.0 
0.0376340000 0.3589610000 0.5192300000 1 1 1 v 0.0 0.0 0.0 mag 0.0 
0.5482140000 0.3590440000 0.0302930000 1 1 1 v 0.0 0.0 0.0 mag 0.0 
0.0460060000 0.3593740000 0.0205290000 1 1 1 v 0.0 0.0 0.0 mag 0.0 
0.7932960000 0.3597540000 0.2738970000 1 1 1 v 0.0 0.0 0.0 mag 0.0 
0.2966500000 0.3605210000 0.0219970000 1 1 1 v 0.0 0.0 0.0 mag 0.0 
0.8052580000 0.3608390000 0.7794130000 1 1 1 v 0.0 0.0 0.0 mag 0.0 
0.8014030000 0.3595160000 0.0294540000 1 1 1 v 0.0 0.0 0.0 mag 0.0 
0.7936200000 0.3612750000 0.5236260000 1 1 1 v 0.0 0.0 0.0 mag 0.0 
0.0458290000 0.3610050000 0.7716670000 1 1 1 v 0.0 0.0 0.0 mag 0.0 
0.2895290000 0.3575600000 0.2612040000 1 1 1 v 0.0 0.0 0.0 mag 0.0 
0.5558390000 0.3702940000 0.5384340000 1 1 1 v 0.0 0.0 0.0 mag 0.0 
0.5674400000 0.3591150000 0.7924370000 1 1 1 v 0.0 0.0 0.0 mag 0.0 
0.2910300000 0.3717030000 0.7738720000 1 1 1 v 0.0 0.0 0.0 mag 0.0 
0.2805620000 0.3614800000 0.4989900000 1 1 1 v 0.0 0.0 0.0 mag 0.0 

