ATOMIC_SPECIES
H   1.008         H_ONCV_PBE-1.0.upf
Au  196.966569    Au_ONCV_PBE-1.0.upf

NUMERICAL_ORBITAL
H_gga_6au_100Ry_2s1p.orb
Au_gga_7au_100Ry_4s2p2d1f.orb

LATTICE_CONSTANT
1.8897261258369282 

LATTICE_VECTORS
11.535200000      0.0000000000      0.0000000000      
0.0000000000      19.063800000      0.0000000000      
-5.767600000      0.0000000000      9.9897700000      

ATOMIC_POSITIONS
Direct

H
0.0000000000
2
0.5015250000 0.5498420000 0.6505700000 1 1 1 v 0.0 0.0 0.0 mag 0.0 
0.4295280000 0.5498070000 0.5790440000 1 1 1 v 0.0 0.0 0.0 mag 0.0 

Au
0.0000000000
64
0.0400000000 0.1000000000 0.0400000000 0 0 0 v 0.0 0.0 0.0 mag 0.0 
0.2900000000 0.1000000000 0.0400000000 0 0 0 v 0.0 0.0 0.0 mag 0.0 
0.5400000000 0.1000000000 0.0400000000 0 0 0 v 0.0 0.0 0.0 mag 0.0 
0.7900000000 0.1000000000 0.0400000000 0 0 0 v 0.0 0.0 0.0 mag 0.0 
0.0400000000 0.1000000000 0.2900000000 0 0 0 v 0.0 0.0 0.0 mag 0.0 
0.2900000000 0.1000000000 0.2900000000 0 0 0 v 0.0 0.0 0.0 mag 0.0 
0.5400000000 0.1000000000 0.2900000000 0 0 0 v 0.0 0.0 0.0 mag 0.0 
0.7900000000 0.1000000000 0.2900000000 0 0 0 v 0.0 0.0 0.0 mag 0.0 
0.0400000000 0.1000000000 0.5400000000 0 0 0 v 0.0 0.0 0.0 mag 0.0 
0.2900000000 0.1000000000 0.5400000000 0 0 0 v 0.0 0.0 0.0 mag 0.0 
0.5400000000 0.1000000000 0.5400000000 0 0 0 v 0.0 0.0 0.0 mag 0.0 
0.7900000000 0.1000000000 0.5400000000 0 0 0 v 0.0 0.0 0.0 mag 0.0 
0.0400000000 0.1000000000 0.7900000000 0 0 0 v 0.0 0.0 0.0 mag 0.0 
0.2900000000 0.1000000000 0.7900000000 0 0 0 v 0.0 0.0 0.0 mag 0.0 
0.5400000000 0.1000000000 0.7900000000 0 0 0 v 0.0 0.0 0.0 mag 0.0 
0.7900000000 0.1000000000 0.7900000000 0 0 0 v 0.0 0.0 0.0 mag 0.0 
0.1233330000 0.2235120000 0.2066670000 0 0 0 v 0.0 0.0 0.0 mag 0.0 
0.3733330000 0.2235120000 0.2066670000 0 0 0 v 0.0 0.0 0.0 mag 0.0 
0.6233330000 0.2235120000 0.2066670000 0 0 0 v 0.0 0.0 0.0 mag 0.0 
0.8733330000 0.2235120000 0.2066670000 0 0 0 v 0.0 0.0 0.0 mag 0.0 
0.1233330000 0.2235120000 0.4566670000 0 0 0 v 0.0 0.0 0.0 mag 0.0 
0.3733330000 0.2235120000 0.4566670000 0 0 0 v 0.0 0.0 0.0 mag 0.0 
0.6233330000 0.2235120000 0.4566670000 0 0 0 v 0.0 0.0 0.0 mag 0.0 
0.8733330000 0.2235120000 0.4566670000 0 0 0 v 0.0 0.0 0.0 mag 0.0 
0.1233330000 0.2235120000 0.7066670000 0 0 0 v 0.0 0.0 0.0 mag 0.0 
0.3733330000 0.2235120000 0.7066670000 0 0 0 v 0.0 0.0 0.0 mag 0.0 
0.6233330000 0.2235120000 0.7066670000 0 0 0 v 0.0 0.0 0.0 mag 0.0 
0.8733330000 0.2235120000 0.7066670000 0 0 0 v 0.0 0.0 0.0 mag 0.0 
0.1233330000 0.2235120000 0.9566670000 0 0 0 v 0.0 0.0 0.0 mag 0.0 
0.3733330000 0.2235120000 0.9566670000 0 0 0 v 0.0 0.0 0.0 mag 0.0 
0.6233330000 0.2235120000 0.9566670000 0 0 0 v 0.0 0.0 0.0 mag 0.0 
0.8733330000 0.2235120000 0.9566670000 0 0 0 v 0.0 0.0 0.0 mag 0.0 
0.2068690000 0.3464590000 0.1222000000 1 1 1 v 0.0 0.0 0.0 mag 0.0 
0.4576240000 0.3468950000 0.1237640000 1 1 1 v 0.0 0.0 0.0 mag 0.0 
0.7066420000 0.3473030000 0.1237150000 1 1 1 v 0.0 0.0 0.0 mag 0.0 
0.9564840000 0.3471840000 0.1237150000 1 1 1 v 0.0 0.0 0.0 mag 0.0 
0.2063770000 0.3471030000 0.3717870000 1 1 1 v 0.0 0.0 0.0 mag 0.0 
0.4555790000 0.3479970000 0.3742350000 1 1 1 v 0.0 0.0 0.0 mag 0.0 
0.7061600000 0.3469610000 0.3740010000 1 1 1 v 0.0 0.0 0.0 mag 0.0 
0.9564380000 0.3473070000 0.3734970000 1 1 1 v 0.0 0.0 0.0 mag 0.0 
0.2078150000 0.3474990000 0.6234610000 1 1 1 v 0.0 0.0 0.0 mag 0.0 
0.4565920000 0.3491050000 0.6236140000 1 1 1 v 0.0 0.0 0.0 mag 0.0 
0.7060150000 0.3479700000 0.6246130000 1 1 1 v 0.0 0.0 0.0 mag 0.0 
0.9564250000 0.3469070000 0.6225180000 1 1 1 v 0.0 0.0 0.0 mag 0.0 
0.2071920000 0.3466430000 0.8729710000 1 1 1 v 0.0 0.0 0.0 mag 0.0 
0.4566870000 0.3474900000 0.8723440000 1 1 1 v 0.0 0.0 0.0 mag 0.0 
0.7084340000 0.3470790000 0.8738140000 1 1 1 v 0.0 0.0 0.0 mag 0.0 
0.9580740000 0.3464550000 0.8733500000 1 1 1 v 0.0 0.0 0.0 mag 0.0 
0.0414590000 0.4743570000 0.0389420000 1 1 1 v 0.0 0.0 0.0 mag 0.0 
0.2900970000 0.4740200000 0.0383500000 1 1 1 v 0.0 0.0 0.0 mag 0.0 
0.5400560000 0.4748470000 0.0434400000 1 1 1 v 0.0 0.0 0.0 mag 0.0 
0.7942470000 0.4753980000 0.0441040000 1 1 1 v 0.0 0.0 0.0 mag 0.0 
0.0362080000 0.4754200000 0.2860780000 1 1 1 v 0.0 0.0 0.0 mag 0.0 
0.2877450000 0.4742710000 0.2864210000 1 1 1 v 0.0 0.0 0.0 mag 0.0 
0.5390500000 0.4748250000 0.2881860000 1 1 1 v 0.0 0.0 0.0 mag 0.0 
0.7892460000 0.4738460000 0.2910160000 1 1 1 v 0.0 0.0 0.0 mag 0.0 
0.0368450000 0.4748710000 0.5402360000 1 1 1 v 0.0 0.0 0.0 mag 0.0 
0.2761460000 0.4722970000 0.5310610000 1 1 1 v 0.0 0.0 0.0 mag 0.0 
0.5451970000 0.4735130000 0.5353230000 1 1 1 v 0.0 0.0 0.0 mag 0.0 
0.7921820000 0.4748450000 0.5412370000 1 1 1 v 0.0 0.0 0.0 mag 0.0 
0.0420440000 0.4740320000 0.7902410000 1 1 1 v 0.0 0.0 0.0 mag 0.0 
0.2915890000 0.4742990000 0.7887670000 1 1 1 v 0.0 0.0 0.0 mag 0.0 
0.5493090000 0.4722570000 0.8041520000 1 1 1 v 0.0 0.0 0.0 mag 0.0 
0.7940470000 0.4742320000 0.7926400000 1 1 1 v 0.0 0.0 0.0 mag 0.0 

