ATOMIC_SPECIES
H   1.008         H_ONCV_PBE-1.0.upf
Au  196.966569    Au_ONCV_PBE-1.0.upf

NUMERICAL_ORBITAL
H_gga_6au_100Ry_2s1p.orb
Au_gga_7au_100Ry_4s2p2d1f.orb

LATTICE_CONSTANT
1.8897261258369282 

LATTICE_VECTORS
11.535200000      0.0000000000      0.0000000000      
0.0000000000      19.063800000      0.0000000000      
-5.767600000      0.0000000000      9.9897700000      

ATOMIC_POSITIONS
Direct

H
0.0000000000
2
0.5607720000 0.5315070000 0.6892370000 1 1 1 v 0.0 0.0 0.0 mag 0.0 
0.3910120000 0.5316880000 0.5200560000 1 1 1 v 0.0 0.0 0.0 mag 0.0 

Au
0.0000000000
64
0.0400000000 0.1000000000 0.0400000000 0 0 0 v 0.0 0.0 0.0 mag 0.0 
0.2900000000 0.1000000000 0.0400000000 0 0 0 v 0.0 0.0 0.0 mag 0.0 
0.5400000000 0.1000000000 0.0400000000 0 0 0 v 0.0 0.0 0.0 mag 0.0 
0.7900000000 0.1000000000 0.0400000000 0 0 0 v 0.0 0.0 0.0 mag 0.0 
0.0400000000 0.1000000000 0.2900000000 0 0 0 v 0.0 0.0 0.0 mag 0.0 
0.2900000000 0.1000000000 0.2900000000 0 0 0 v 0.0 0.0 0.0 mag 0.0 
0.5400000000 0.1000000000 0.2900000000 0 0 0 v 0.0 0.0 0.0 mag 0.0 
0.7900000000 0.1000000000 0.2900000000 0 0 0 v 0.0 0.0 0.0 mag 0.0 
0.0400000000 0.1000000000 0.5400000000 0 0 0 v 0.0 0.0 0.0 mag 0.0 
0.2900000000 0.1000000000 0.5400000000 0 0 0 v 0.0 0.0 0.0 mag 0.0 
0.5400000000 0.1000000000 0.5400000000 0 0 0 v 0.0 0.0 0.0 mag 0.0 
0.7900000000 0.1000000000 0.5400000000 0 0 0 v 0.0 0.0 0.0 mag 0.0 
0.0400000000 0.1000000000 0.7900000000 0 0 0 v 0.0 0.0 0.0 mag 0.0 
0.2900000000 0.1000000000 0.7900000000 0 0 0 v 0.0 0.0 0.0 mag 0.0 
0.5400000000 0.1000000000 0.7900000000 0 0 0 v 0.0 0.0 0.0 mag 0.0 
0.7900000000 0.1000000000 0.7900000000 0 0 0 v 0.0 0.0 0.0 mag 0.0 
0.1233330000 0.2235120000 0.2066670000 0 0 0 v 0.0 0.0 0.0 mag 0.0 
0.3733330000 0.2235120000 0.2066670000 0 0 0 v 0.0 0.0 0.0 mag 0.0 
0.6233330000 0.2235120000 0.2066670000 0 0 0 v 0.0 0.0 0.0 mag 0.0 
0.8733330000 0.2235120000 0.2066670000 0 0 0 v 0.0 0.0 0.0 mag 0.0 
0.1233330000 0.2235120000 0.4566670000 0 0 0 v 0.0 0.0 0.0 mag 0.0 
0.3733330000 0.2235120000 0.4566670000 0 0 0 v 0.0 0.0 0.0 mag 0.0 
0.6233330000 0.2235120000 0.4566670000 0 0 0 v 0.0 0.0 0.0 mag 0.0 
0.8733330000 0.2235120000 0.4566670000 0 0 0 v 0.0 0.0 0.0 mag 0.0 
0.1233330000 0.2235120000 0.7066670000 0 0 0 v 0.0 0.0 0.0 mag 0.0 
0.3733330000 0.2235120000 0.7066670000 0 0 0 v 0.0 0.0 0.0 mag 0.0 
0.6233330000 0.2235120000 0.7066670000 0 0 0 v 0.0 0.0 0.0 mag 0.0 
0.8733330000 0.2235120000 0.7066670000 0 0 0 v 0.0 0.0 0.0 mag 0.0 
0.1233330000 0.2235120000 0.9566670000 0 0 0 v 0.0 0.0 0.0 mag 0.0 
0.3733330000 0.2235120000 0.9566670000 0 0 0 v 0.0 0.0 0.0 mag 0.0 
0.6233330000 0.2235120000 0.9566670000 0 0 0 v 0.0 0.0 0.0 mag 0.0 
0.8733330000 0.2235120000 0.9566670000 0 0 0 v 0.0 0.0 0.0 mag 0.0 
0.2076500000 0.3463220000 0.1247620000 1 1 1 v 0.0 0.0 0.0 mag 0.0 
0.4559080000 0.3463530000 0.1241830000 1 1 1 v 0.0 0.0 0.0 mag 0.0 
0.7057250000 0.3472160000 0.1241500000 1 1 1 v 0.0 0.0 0.0 mag 0.0 
0.9562080000 0.3470730000 0.1237540000 1 1 1 v 0.0 0.0 0.0 mag 0.0 
0.2055580000 0.3473300000 0.3727980000 1 1 1 v 0.0 0.0 0.0 mag 0.0 
0.4566620000 0.3493540000 0.3780130000 1 1 1 v 0.0 0.0 0.0 mag 0.0 
0.7057180000 0.3468140000 0.3742500000 1 1 1 v 0.0 0.0 0.0 mag 0.0 
0.9558260000 0.3472260000 0.3742560000 1 1 1 v 0.0 0.0 0.0 mag 0.0 
0.2077230000 0.3484120000 0.6228860000 1 1 1 v 0.0 0.0 0.0 mag 0.0 
0.4558770000 0.3485410000 0.6240460000 1 1 1 v 0.0 0.0 0.0 mag 0.0 
0.7019280000 0.3493680000 0.6232900000 1 1 1 v 0.0 0.0 0.0 mag 0.0 
0.9557730000 0.3463640000 0.6240540000 1 1 1 v 0.0 0.0 0.0 mag 0.0 
0.2063900000 0.3459130000 0.8735540000 1 1 1 v 0.0 0.0 0.0 mag 0.0 
0.4570380000 0.3483950000 0.8722110000 1 1 1 v 0.0 0.0 0.0 mag 0.0 
0.7071190000 0.3473230000 0.8743820000 1 1 1 v 0.0 0.0 0.0 mag 0.0 
0.9551200000 0.3463420000 0.8722700000 1 1 1 v 0.0 0.0 0.0 mag 0.0 
0.0396840000 0.4741040000 0.0401390000 1 1 1 v 0.0 0.0 0.0 mag 0.0 
0.2889130000 0.4734450000 0.0404710000 1 1 1 v 0.0 0.0 0.0 mag 0.0 
0.5385610000 0.4734540000 0.0444970000 1 1 1 v 0.0 0.0 0.0 mag 0.0 
0.7918750000 0.4742480000 0.0448190000 1 1 1 v 0.0 0.0 0.0 mag 0.0 
0.0350800000 0.4742600000 0.2880050000 1 1 1 v 0.0 0.0 0.0 mag 0.0 
0.2849760000 0.4746500000 0.2850060000 1 1 1 v 0.0 0.0 0.0 mag 0.0 
0.5381290000 0.4736240000 0.2926960000 1 1 1 v 0.0 0.0 0.0 mag 0.0 
0.7874860000 0.4738740000 0.2923760000 1 1 1 v 0.0 0.0 0.0 mag 0.0 
0.0353780000 0.4734780000 0.5412710000 1 1 1 v 0.0 0.0 0.0 mag 0.0 
0.2776460000 0.4769410000 0.5363990000 1 1 1 v 0.0 0.0 0.0 mag 0.0 
0.5391260000 0.4864100000 0.5405020000 1 1 1 v 0.0 0.0 0.0 mag 0.0 
0.7870980000 0.4736300000 0.5417140000 1 1 1 v 0.0 0.0 0.0 mag 0.0 
0.0392980000 0.4734530000 0.7908650000 1 1 1 v 0.0 0.0 0.0 mag 0.0 
0.2879520000 0.4737850000 0.7918890000 1 1 1 v 0.0 0.0 0.0 mag 0.0 
0.5434470000 0.4769260000 0.8022950000 1 1 1 v 0.0 0.0 0.0 mag 0.0 
0.7947590000 0.4746850000 0.7948800000 1 1 1 v 0.0 0.0 0.0 mag 0.0 

