ATOMIC_SPECIES
Li  6.94          Li_ONCV_PBE-1.2.upf
Si  28.085        Si_ONCV_PBE-1.2.upf

NUMERICAL_ORBITAL
Li_gga_8au_100Ry_4s1p.orb
Si_gga_8au_100Ry_2s2p1d.orb

LATTICE_CONSTANT
1.8897261258369282 

LATTICE_VECTORS
10.862000000      0.0000000000      0.0000000000      
0.0000000000      10.862000000      0.0000000000      
0.0000000000      0.0000000000      10.862000000      

ATOMIC_POSITIONS
Direct

Li
0.0000000000
1
0.5651240000 0.5651270000 0.5651260000 1 1 1 v 0.0 0.0 0.0 mag 0.0 

Si
0.0000000000
64
0.1282850000 0.3770490000 0.1282860000 1 1 1 v 0.0 0.0 0.0 mag 0.0 
0.1273740000 0.3776040000 0.6274940000 1 1 1 v 0.0 0.0 0.0 mag 0.0 
0.1268630000 0.8778610000 0.1268780000 1 1 1 v 0.0 0.0 0.0 mag 0.0 
0.1266530000 0.8785190000 0.6273150000 1 1 1 v 0.0 0.0 0.0 mag 0.0 
0.6275110000 0.3776030000 0.1273680000 1 1 1 v 0.0 0.0 0.0 mag 0.0 
0.6315080000 0.3699510000 0.6315080000 1 1 1 v 0.0 0.0 0.0 mag 0.0 
0.6273100000 0.8785210000 0.1266670000 1 1 1 v 0.0 0.0 0.0 mag 0.0 
0.6267390000 0.8783170000 0.6267430000 1 1 1 v 0.0 0.0 0.0 mag 0.0 
0.0033630000 0.0033470000 0.2523590000 1 1 1 v 0.0 0.0 0.0 mag 0.0 
0.0019360000 0.0019300000 0.7531660000 1 1 1 v 0.0 0.0 0.0 mag 0.0 
0.0035700000 0.5029210000 0.2517040000 1 1 1 v 0.0 0.0 0.0 mag 0.0 
0.0028460000 0.5027380000 0.7526090000 1 1 1 v 0.0 0.0 0.0 mag 0.0 
0.5029110000 0.0035440000 0.2517120000 1 1 1 v 0.0 0.0 0.0 mag 0.0 
0.5027090000 0.0028400000 0.7526250000 1 1 1 v 0.0 0.0 0.0 mag 0.0 
0.5034830000 0.5034790000 0.2519200000 1 1 1 v 0.0 0.0 0.0 mag 0.0 
0.4987310000 0.4987020000 0.7602700000 1 1 1 v 0.0 0.0 0.0 mag 0.0 
0.1282840000 0.1282910000 0.3770580000 1 1 1 v 0.0 0.0 0.0 mag 0.0 
0.1268590000 0.1268770000 0.8778630000 1 1 1 v 0.0 0.0 0.0 mag 0.0 
0.1273770000 0.6274850000 0.3776160000 1 1 1 v 0.0 0.0 0.0 mag 0.0 
0.1266500000 0.6272990000 0.8785200000 1 1 1 v 0.0 0.0 0.0 mag 0.0 
0.6275120000 0.1273820000 0.3775990000 1 1 1 v 0.0 0.0 0.0 mag 0.0 
0.6273100000 0.1266770000 0.8785130000 1 1 1 v 0.0 0.0 0.0 mag 0.0 
0.6314930000 0.6315200000 0.3699520000 1 1 1 v 0.0 0.0 0.0 mag 0.0 
0.6267370000 0.6267420000 0.8783070000 1 1 1 v 0.0 0.0 0.0 mag 0.0 
0.0033610000 0.2523620000 0.0033450000 1 1 1 v 0.0 0.0 0.0 mag 0.0 
0.0035700000 0.2517070000 0.5029060000 1 1 1 v 0.0 0.0 0.0 mag 0.0 
0.0019350000 0.7531740000 0.0019350000 1 1 1 v 0.0 0.0 0.0 mag 0.0 
0.0028490000 0.7526190000 0.5027270000 1 1 1 v 0.0 0.0 0.0 mag 0.0 
0.5029110000 0.2517050000 0.0035550000 1 1 1 v 0.0 0.0 0.0 mag 0.0 
0.5034810000 0.2519100000 0.5034770000 1 1 1 v 0.0 0.0 0.0 mag 0.0 
0.5027110000 0.7526210000 0.0028560000 1 1 1 v 0.0 0.0 0.0 mag 0.0 
0.4987180000 0.7602660000 0.4987130000 1 1 1 v 0.0 0.0 0.0 mag 0.0 
0.3795420000 0.3795220000 0.3795310000 1 1 1 v 0.0 0.0 0.0 mag 0.0 
0.3732370000 0.3732310000 0.8808210000 1 1 1 v 0.0 0.0 0.0 mag 0.0 
0.3732410000 0.8808130000 0.3732490000 1 1 1 v 0.0 0.0 0.0 mag 0.0 
0.3785560000 0.8793510000 0.8793600000 1 1 1 v 0.0 0.0 0.0 mag 0.0 
0.8808280000 0.3732280000 0.3732180000 1 1 1 v 0.0 0.0 0.0 mag 0.0 
0.8793460000 0.3785680000 0.8793370000 1 1 1 v 0.0 0.0 0.0 mag 0.0 
0.8793470000 0.8793500000 0.3785610000 1 1 1 v 0.0 0.0 0.0 mag 0.0 
0.8762970000 0.8763190000 0.8763080000 1 1 1 v 0.0 0.0 0.0 mag 0.0 
0.2523560000 0.0033500000 0.0033660000 1 1 1 v 0.0 0.0 0.0 mag 0.0 
0.2517100000 0.0035470000 0.5029260000 1 1 1 v 0.0 0.0 0.0 mag 0.0 
0.2517130000 0.5029230000 0.0035620000 1 1 1 v 0.0 0.0 0.0 mag 0.0 
0.2519300000 0.5034800000 0.5034840000 1 1 1 v 0.0 0.0 0.0 mag 0.0 
0.7531570000 0.0019320000 0.0019320000 1 1 1 v 0.0 0.0 0.0 mag 0.0 
0.7526150000 0.0028370000 0.5027190000 1 1 1 v 0.0 0.0 0.0 mag 0.0 
0.7526130000 0.5027350000 0.0028310000 1 1 1 v 0.0 0.0 0.0 mag 0.0 
0.7602720000 0.4987150000 0.4987180000 1 1 1 v 0.0 0.0 0.0 mag 0.0 
0.3770650000 0.1282900000 0.1282890000 1 1 1 v 0.0 0.0 0.0 mag 0.0 
0.3776100000 0.1273860000 0.6275020000 1 1 1 v 0.0 0.0 0.0 mag 0.0 
0.3776110000 0.6274860000 0.1273910000 1 1 1 v 0.0 0.0 0.0 mag 0.0 
0.3699490000 0.6315060000 0.6315060000 1 1 1 v 0.0 0.0 0.0 mag 0.0 
0.8778640000 0.1268740000 0.1268580000 1 1 1 v 0.0 0.0 0.0 mag 0.0 
0.8785140000 0.1266750000 0.6272950000 1 1 1 v 0.0 0.0 0.0 mag 0.0 
0.8785130000 0.6272990000 0.1266610000 1 1 1 v 0.0 0.0 0.0 mag 0.0 
0.8782980000 0.6267410000 0.6267360000 1 1 1 v 0.0 0.0 0.0 mag 0.0 
0.2539200000 0.2538980000 0.2539090000 1 1 1 v 0.0 0.0 0.0 mag 0.0 
0.2508760000 0.2508730000 0.7516590000 1 1 1 v 0.0 0.0 0.0 mag 0.0 
0.2508780000 0.7516540000 0.2508860000 1 1 1 v 0.0 0.0 0.0 mag 0.0 
0.2493920000 0.7569950000 0.7570030000 1 1 1 v 0.0 0.0 0.0 mag 0.0 
0.7516640000 0.2508710000 0.2508620000 1 1 1 v 0.0 0.0 0.0 mag 0.0 
0.7569840000 0.2494040000 0.7569760000 1 1 1 v 0.0 0.0 0.0 mag 0.0 
0.7569860000 0.7569940000 0.2493970000 1 1 1 v 0.0 0.0 0.0 mag 0.0 
0.7506800000 0.7506990000 0.7506890000 1 1 1 v 0.0 0.0 0.0 mag 0.0 

