AutoCreatByScript: H Au 
1.000000000
    9.98977624    -5.76760000     0.00000000
    0.00000000    11.53520000     0.00000000
    0.00000000     0.00000000    19.06380000
    H   Au
    2   64
Selective Dynamics
Direct
    0.337274000000    0.421392000000    0.411806000000    T   T   T
    0.587349000000    0.670321000000    0.412729000000    T   T   T
    0.000000000000    0.000000000000    0.000000000000    F   F   F
    0.250000000000    0.000000000000    0.000000000000    F   F   F
    0.500000000000    0.000000000000    0.000000000000    F   F   F
    0.750000000000    0.000000000000    0.000000000000    F   F   F
    0.000000000000    0.250000000000    0.000000000000    F   F   F
    0.250000000000    0.250000000000    0.000000000000    F   F   F
    0.500000000000    0.250000000000    0.000000000000    F   F   F
    0.750000000000    0.250000000000    0.000000000000    F   F   F
    0.000000000000    0.500000000000    0.000000000000    F   F   F
    0.250000000000    0.500000000000    0.000000000000    F   F   F
    0.500000000000    0.500000000000    0.000000000000    F   F   F
    0.750000000000    0.500000000000    0.000000000000    F   F   F
    0.000000000000    0.750000000000    0.000000000000    F   F   F
    0.250000000000    0.750000000000    0.000000000000    F   F   F
    0.500000000000    0.750000000000    0.000000000000    F   F   F
    0.750000000000    0.750000000000    0.000000000000    F   F   F
    0.083333000000    0.166667000000    0.123512000000    F   F   F
    0.333333000000    0.166667000000    0.123512000000    F   F   F
    0.583333000000    0.166667000000    0.123512000000    F   F   F
    0.833333000000    0.166667000000    0.123512000000    F   F   F
    0.083333000000    0.416667000000    0.123512000000    F   F   F
    0.333333000000    0.416667000000    0.123512000000    F   F   F
    0.583333000000    0.416667000000    0.123512000000    F   F   F
    0.833333000000    0.416667000000    0.123512000000    F   F   F
    0.083333000000    0.666667000000    0.123512000000    F   F   F
    0.333333000000    0.666667000000    0.123512000000    F   F   F
    0.583333000000    0.666667000000    0.123512000000    F   F   F
    0.833333000000    0.666667000000    0.123512000000    F   F   F
    0.083333000000    0.916667000000    0.123512000000    F   F   F
    0.333333000000    0.916667000000    0.123512000000    F   F   F
    0.583333000000    0.916667000000    0.123512000000    F   F   F
    0.833333000000    0.916667000000    0.123512000000    F   F   F
    0.166667000000    0.083333000000    0.247020000000    T   T   T
    0.416667000000    0.083333000000    0.247020000000    T   T   T
    0.666667000000    0.083333000000    0.247020000000    T   T   T
    0.916667000000    0.083333000000    0.247020000000    T   T   T
    0.166667000000    0.333333000000    0.247020000000    T   T   T
    0.416667000000    0.333333000000    0.247020000000    T   T   T
    0.666667000000    0.333333000000    0.247020000000    T   T   T
    0.916667000000    0.333333000000    0.247020000000    T   T   T
    0.166667000000    0.583333000000    0.247020000000    T   T   T
    0.416667000000    0.583333000000    0.247020000000    T   T   T
    0.666667000000    0.583333000000    0.247020000000    T   T   T
    0.916667000000    0.583333000000    0.247020000000    T   T   T
    0.166667000000    0.833333000000    0.247020000000    T   T   T
    0.416667000000    0.833333000000    0.247020000000    T   T   T
    0.666667000000    0.833333000000    0.247020000000    T   T   T
    0.916667000000    0.833333000000    0.247020000000    T   T   T
    0.000000000000    0.000000000000    0.374617000000    T   T   T
    0.250000000000    0.000000000000    0.374617000000    T   T   T
    0.500000000000    0.000000000000    0.374617000000    T   T   T
    0.750000000000    0.000000000000    0.374617000000    T   T   T
    0.000000000000    0.250000000000    0.374617000000    T   T   T
    0.250000000000    0.250000000000    0.374617000000    T   T   T
    0.500000000000    0.250000000000    0.374617000000    T   T   T
    0.750000000000    0.250000000000    0.374617000000    T   T   T
    0.000000000000    0.500000000000    0.374617000000    T   T   T
    0.250000000000    0.500000000000    0.374617000000    T   T   T
    0.500000000000    0.500000000000    0.374617000000    T   T   T
    0.750000000000    0.500000000000    0.374617000000    T   T   T
    0.000000000000    0.750000000000    0.374617000000    T   T   T
    0.250000000000    0.750000000000    0.374617000000    T   T   T
    0.500000000000    0.750000000000    0.374617000000    T   T   T
    0.750000000000    0.750000000000    0.374617000000    T   T   T
