ATOMIC_SPECIES
H   1.008         H_ONCV_PBE-1.0.upf
Au  196.966569    Au_ONCV_PBE-1.0.upf

NUMERICAL_ORBITAL
H_gga_6au_100Ry_2s1p.orb
Au_gga_7au_100Ry_4s2p2d1f.orb

LATTICE_CONSTANT
1.8897261258369282 

LATTICE_VECTORS
11.535200000      0.0000000000      0.0000000000      
0.0000000000      19.063800000      0.0000000000      
-5.767600000      0.0000000000      9.9897700000      

ATOMIC_POSITIONS
Direct

H
0.0000000000
2
0.5343220000 0.5334700000 0.6757950000 1 1 1 v 0.0 0.0 0.0 mag 0.0 
0.4055210000 0.5334020000 0.5466490000 1 1 1 v 0.0 0.0 0.0 mag 0.0 

Au
0.0000000000
64
0.0400000000 0.1000000000 0.0400000000 0 0 0 v 0.0 0.0 0.0 mag 0.0 
0.2900000000 0.1000000000 0.0400000000 0 0 0 v 0.0 0.0 0.0 mag 0.0 
0.5400000000 0.1000000000 0.0400000000 0 0 0 v 0.0 0.0 0.0 mag 0.0 
0.7900000000 0.1000000000 0.0400000000 0 0 0 v 0.0 0.0 0.0 mag 0.0 
0.0400000000 0.1000000000 0.2900000000 0 0 0 v 0.0 0.0 0.0 mag 0.0 
0.2900000000 0.1000000000 0.2900000000 0 0 0 v 0.0 0.0 0.0 mag 0.0 
0.5400000000 0.1000000000 0.2900000000 0 0 0 v 0.0 0.0 0.0 mag 0.0 
0.7900000000 0.1000000000 0.2900000000 0 0 0 v 0.0 0.0 0.0 mag 0.0 
0.0400000000 0.1000000000 0.5400000000 0 0 0 v 0.0 0.0 0.0 mag 0.0 
0.2900000000 0.1000000000 0.5400000000 0 0 0 v 0.0 0.0 0.0 mag 0.0 
0.5400000000 0.1000000000 0.5400000000 0 0 0 v 0.0 0.0 0.0 mag 0.0 
0.7900000000 0.1000000000 0.5400000000 0 0 0 v 0.0 0.0 0.0 mag 0.0 
0.0400000000 0.1000000000 0.7900000000 0 0 0 v 0.0 0.0 0.0 mag 0.0 
0.2900000000 0.1000000000 0.7900000000 0 0 0 v 0.0 0.0 0.0 mag 0.0 
0.5400000000 0.1000000000 0.7900000000 0 0 0 v 0.0 0.0 0.0 mag 0.0 
0.7900000000 0.1000000000 0.7900000000 0 0 0 v 0.0 0.0 0.0 mag 0.0 
0.1233330000 0.2235120000 0.2066670000 0 0 0 v 0.0 0.0 0.0 mag 0.0 
0.3733330000 0.2235120000 0.2066670000 0 0 0 v 0.0 0.0 0.0 mag 0.0 
0.6233330000 0.2235120000 0.2066670000 0 0 0 v 0.0 0.0 0.0 mag 0.0 
0.8733330000 0.2235120000 0.2066670000 0 0 0 v 0.0 0.0 0.0 mag 0.0 
0.1233330000 0.2235120000 0.4566670000 0 0 0 v 0.0 0.0 0.0 mag 0.0 
0.3733330000 0.2235120000 0.4566670000 0 0 0 v 0.0 0.0 0.0 mag 0.0 
0.6233330000 0.2235120000 0.4566670000 0 0 0 v 0.0 0.0 0.0 mag 0.0 
0.8733330000 0.2235120000 0.4566670000 0 0 0 v 0.0 0.0 0.0 mag 0.0 
0.1233330000 0.2235120000 0.7066670000 0 0 0 v 0.0 0.0 0.0 mag 0.0 
0.3733330000 0.2235120000 0.7066670000 0 0 0 v 0.0 0.0 0.0 mag 0.0 
0.6233330000 0.2235120000 0.7066670000 0 0 0 v 0.0 0.0 0.0 mag 0.0 
0.8733330000 0.2235120000 0.7066670000 0 0 0 v 0.0 0.0 0.0 mag 0.0 
0.1233330000 0.2235120000 0.9566670000 0 0 0 v 0.0 0.0 0.0 mag 0.0 
0.3733330000 0.2235120000 0.9566670000 0 0 0 v 0.0 0.0 0.0 mag 0.0 
0.6233330000 0.2235120000 0.9566670000 0 0 0 v 0.0 0.0 0.0 mag 0.0 
0.8733330000 0.2235120000 0.9566670000 0 0 0 v 0.0 0.0 0.0 mag 0.0 
0.2076160000 0.3461620000 0.1233290000 1 1 1 v 0.0 0.0 0.0 mag 0.0 
0.4569090000 0.3465350000 0.1235990000 1 1 1 v 0.0 0.0 0.0 mag 0.0 
0.7065310000 0.3473110000 0.1238140000 1 1 1 v 0.0 0.0 0.0 mag 0.0 
0.9567070000 0.3471630000 0.1235050000 1 1 1 v 0.0 0.0 0.0 mag 0.0 
0.2063120000 0.3473930000 0.3722640000 1 1 1 v 0.0 0.0 0.0 mag 0.0 
0.4568940000 0.3491500000 0.3766110000 1 1 1 v 0.0 0.0 0.0 mag 0.0 
0.7062090000 0.3467680000 0.3739290000 1 1 1 v 0.0 0.0 0.0 mag 0.0 
0.9563300000 0.3472710000 0.3736160000 1 1 1 v 0.0 0.0 0.0 mag 0.0 
0.2084720000 0.3484510000 0.6224380000 1 1 1 v 0.0 0.0 0.0 mag 0.0 
0.4565390000 0.3485480000 0.6236330000 1 1 1 v 0.0 0.0 0.0 mag 0.0 
0.7034820000 0.3491760000 0.6232230000 1 1 1 v 0.0 0.0 0.0 mag 0.0 
0.9565850000 0.3465260000 0.6232170000 1 1 1 v 0.0 0.0 0.0 mag 0.0 
0.2073940000 0.3460170000 0.8727480000 1 1 1 v 0.0 0.0 0.0 mag 0.0 
0.4577040000 0.3484700000 0.8717520000 1 1 1 v 0.0 0.0 0.0 mag 0.0 
0.7079020000 0.3473710000 0.8738840000 1 1 1 v 0.0 0.0 0.0 mag 0.0 
0.9567910000 0.3461480000 0.8725010000 1 1 1 v 0.0 0.0 0.0 mag 0.0 
0.0413520000 0.4742890000 0.0388620000 1 1 1 v 0.0 0.0 0.0 mag 0.0 
0.2903580000 0.4736560000 0.0389320000 1 1 1 v 0.0 0.0 0.0 mag 0.0 
0.5401660000 0.4738820000 0.0435350000 1 1 1 v 0.0 0.0 0.0 mag 0.0 
0.7939110000 0.4748370000 0.0446510000 1 1 1 v 0.0 0.0 0.0 mag 0.0 
0.0358160000 0.4748390000 0.2865120000 1 1 1 v 0.0 0.0 0.0 mag 0.0 
0.2862200000 0.4741650000 0.2839390000 1 1 1 v 0.0 0.0 0.0 mag 0.0 
0.5393990000 0.4740420000 0.2909820000 1 1 1 v 0.0 0.0 0.0 mag 0.0 
0.7888430000 0.4739840000 0.2914980000 1 1 1 v 0.0 0.0 0.0 mag 0.0 
0.0368610000 0.4738830000 0.5400960000 1 1 1 v 0.0 0.0 0.0 mag 0.0 
0.2781110000 0.4771440000 0.5319120000 1 1 1 v 0.0 0.0 0.0 mag 0.0 
0.5413260000 0.4834600000 0.5388370000 1 1 1 v 0.0 0.0 0.0 mag 0.0 
0.7892560000 0.4740340000 0.5408340000 1 1 1 v 0.0 0.0 0.0 mag 0.0 
0.0411570000 0.4736290000 0.7897310000 1 1 1 v 0.0 0.0 0.0 mag 0.0 
0.2903200000 0.4738640000 0.7899350000 1 1 1 v 0.0 0.0 0.0 mag 0.0 
0.5484500000 0.4770910000 0.8024070000 1 1 1 v 0.0 0.0 0.0 mag 0.0 
0.7962310000 0.4741270000 0.7940480000 1 1 1 v 0.0 0.0 0.0 mag 0.0 

