ATOMIC_SPECIES
C   12.011        C_ONCV_PBE-1.0.upf
O   15.999        O_ONCV_PBE-1.0.upf
Pt  195.084       Pt_ONCV_PBE-1.0.upf

NUMERICAL_ORBITAL
C_gga_7au_100Ry_2s2p1d.orb
O_gga_7au_100Ry_2s2p1d.orb
Pt_gga_7au_100Ry_4s2p2d1f.orb

LATTICE_CONSTANT
1.8897261258369282 

LATTICE_VECTORS
11.187400000      0.0000000000      0.0000000000      
0.0000000000      18.850900000      0.0000000000      
-5.593700000      0.0000000000      9.6885700000      

ATOMIC_POSITIONS
Direct

C
0.0000000000
1
0.4665920000 0.4350450000 0.6072900000 1 1 1 v 0.0 0.0 0.0 mag 0.0 

O
0.0000000000
1
0.4685220000 0.4983590000 0.6076700000 1 1 1 v 0.0 0.0 0.0 mag 0.0 

Pt
0.0000000000
64
0.0445520000 0.0000000000 0.0222760000 0 0 0 v 0.0 0.0 0.0 mag 0.0 
0.2945520000 0.0000000000 0.0222760000 0 0 0 v 0.0 0.0 0.0 mag 0.0 
0.5445520000 0.0000000000 0.0222760000 0 0 0 v 0.0 0.0 0.0 mag 0.0 
0.7945520000 0.0000000000 0.0222760000 0 0 0 v 0.0 0.0 0.0 mag 0.0 
0.0445520000 0.0000000000 0.2722760000 0 0 0 v 0.0 0.0 0.0 mag 0.0 
0.2945520000 0.0000000000 0.2722760000 0 0 0 v 0.0 0.0 0.0 mag 0.0 
0.5445520000 0.0000000000 0.2722760000 0 0 0 v 0.0 0.0 0.0 mag 0.0 
0.7945520000 0.0000000000 0.2722760000 0 0 0 v 0.0 0.0 0.0 mag 0.0 
0.2945520000 0.0000000000 0.5222760000 0 0 0 v 0.0 0.0 0.0 mag 0.0 
0.5445520000 0.0000000000 0.5222760000 0 0 0 v 0.0 0.0 0.0 mag 0.0 
0.7945520000 0.0000000000 0.5222760000 0 0 0 v 0.0 0.0 0.0 mag 0.0 
0.0445520000 0.0000000000 0.5222760000 0 0 0 v 0.0 0.0 0.0 mag 0.0 
0.0445520000 0.0000000000 0.7722760000 0 0 0 v 0.0 0.0 0.0 mag 0.0 
0.2945520000 0.0000000000 0.7722760000 0 0 0 v 0.0 0.0 0.0 mag 0.0 
0.5445520000 0.0000000000 0.7722760000 0 0 0 v 0.0 0.0 0.0 mag 0.0 
0.7945520000 0.0000000000 0.7722760000 0 0 0 v 0.0 0.0 0.0 mag 0.0 
0.8790870000 0.1206440000 0.1893420000 1 1 1 v 0.0 0.0 0.0 mag 0.0 
0.8790840000 0.1206560000 0.4393930000 1 1 1 v 0.0 0.0 0.0 mag 0.0 
0.8788840000 0.1203470000 0.9393090000 1 1 1 v 0.0 0.0 0.0 mag 0.0 
0.6289340000 0.1206490000 0.1892830000 1 1 1 v 0.0 0.0 0.0 mag 0.0 
0.3790950000 0.1203000000 0.1894700000 1 1 1 v 0.0 0.0 0.0 mag 0.0 
0.1290870000 0.1203620000 0.1895680000 1 1 1 v 0.0 0.0 0.0 mag 0.0 
0.8789120000 0.1203340000 0.6892130000 1 1 1 v 0.0 0.0 0.0 mag 0.0 
0.1290410000 0.1205250000 0.9393150000 1 1 1 v 0.0 0.0 0.0 mag 0.0 
0.6286870000 0.1210500000 0.4396620000 1 1 1 v 0.0 0.0 0.0 mag 0.0 
0.3791320000 0.1202920000 0.9392010000 1 1 1 v 0.0 0.0 0.0 mag 0.0 
0.1297470000 0.1211930000 0.4396740000 1 1 1 v 0.0 0.0 0.0 mag 0.0 
0.6287000000 0.1210920000 0.9386300000 1 1 1 v 0.0 0.0 0.0 mag 0.0 
0.6288250000 0.1214210000 0.6892150000 1 1 1 v 0.0 0.0 0.0 mag 0.0 
0.1290890000 0.1203400000 0.6891130000 1 1 1 v 0.0 0.0 0.0 mag 0.0 
0.3790800000 0.1214420000 0.4395000000 1 1 1 v 0.0 0.0 0.0 mag 0.0 
0.3790760000 0.1214600000 0.6891920000 1 1 1 v 0.0 0.0 0.0 mag 0.0 
0.9632230000 0.2383340000 0.8562360000 1 1 1 v 0.0 0.0 0.0 mag 0.0 
0.9635600000 0.2388900000 0.1063490000 1 1 1 v 0.0 0.0 0.0 mag 0.0 
0.9634640000 0.2392380000 0.3563570000 1 1 1 v 0.0 0.0 0.0 mag 0.0 
0.4630460000 0.2387970000 0.1060580000 1 1 1 v 0.0 0.0 0.0 mag 0.0 
0.7133780000 0.2391520000 0.1062860000 1 1 1 v 0.0 0.0 0.0 mag 0.0 
0.7133870000 0.2391400000 0.3563120000 1 1 1 v 0.0 0.0 0.0 mag 0.0 
0.9636450000 0.2388790000 0.6064930000 1 1 1 v 0.0 0.0 0.0 mag 0.0 
0.2134250000 0.2383430000 0.1065420000 1 1 1 v 0.0 0.0 0.0 mag 0.0 
0.4638940000 0.2401220000 0.3574590000 1 1 1 v 0.0 0.0 0.0 mag 0.0 
0.2134870000 0.2383180000 0.8560550000 1 1 1 v 0.0 0.0 0.0 mag 0.0 
0.7120740000 0.2402130000 0.8555200000 1 1 1 v 0.0 0.0 0.0 mag 0.0 
0.7121920000 0.2401410000 0.6057330000 1 1 1 v 0.0 0.0 0.0 mag 0.0 
0.2142610000 0.2403690000 0.3577840000 1 1 1 v 0.0 0.0 0.0 mag 0.0 
0.4639190000 0.2401910000 0.8555370000 1 1 1 v 0.0 0.0 0.0 mag 0.0 
0.4633700000 0.2417320000 0.6062640000 1 1 1 v 0.0 0.0 0.0 mag 0.0 
0.2142290000 0.2403650000 0.6056570000 1 1 1 v 0.0 0.0 0.0 mag 0.0 
0.0473710000 0.3601370000 0.2731590000 1 1 1 v 0.0 0.0 0.0 mag 0.0 
0.5477680000 0.3599360000 0.2727350000 1 1 1 v 0.0 0.0 0.0 mag 0.0 
0.0474300000 0.3601560000 0.5230480000 1 1 1 v 0.0 0.0 0.0 mag 0.0 
0.5477260000 0.3599850000 0.0236310000 1 1 1 v 0.0 0.0 0.0 mag 0.0 
0.0474450000 0.3597750000 0.0233950000 1 1 1 v 0.0 0.0 0.0 mag 0.0 
0.7976910000 0.3601410000 0.2732210000 1 1 1 v 0.0 0.0 0.0 mag 0.0 
0.2977090000 0.3596760000 0.0232310000 1 1 1 v 0.0 0.0 0.0 mag 0.0 
0.8019160000 0.3591210000 0.7753150000 1 1 1 v 0.0 0.0 0.0 mag 0.0 
0.7979660000 0.3599990000 0.0238090000 1 1 1 v 0.0 0.0 0.0 mag 0.0 
0.7981150000 0.3599790000 0.5229460000 1 1 1 v 0.0 0.0 0.0 mag 0.0 
0.0475270000 0.3597360000 0.7729640000 1 1 1 v 0.0 0.0 0.0 mag 0.0 
0.2955160000 0.3592360000 0.2690200000 1 1 1 v 0.0 0.0 0.0 mag 0.0 
0.5493070000 0.3652930000 0.5215770000 1 1 1 v 0.0 0.0 0.0 mag 0.0 
0.5491550000 0.3655710000 0.7761660000 1 1 1 v 0.0 0.0 0.0 mag 0.0 
0.2955040000 0.3592740000 0.7752140000 1 1 1 v 0.0 0.0 0.0 mag 0.0 
0.2955690000 0.3661700000 0.5221090000 1 1 1 v 0.0 0.0 0.0 mag 0.0 

