ATOMIC_SPECIES
C   12.011        C_ONCV_PBE-1.0.upf
O   15.999        O_ONCV_PBE-1.0.upf
Pt  195.084       Pt_ONCV_PBE-1.0.upf

NUMERICAL_ORBITAL
C_gga_7au_100Ry_2s2p1d.orb
O_gga_7au_100Ry_2s2p1d.orb
Pt_gga_7au_100Ry_4s2p2d1f.orb

LATTICE_CONSTANT
1.8897261258369282 

LATTICE_VECTORS
11.187400000      0.0000000000      0.0000000000      
0.0000000000      18.850900000      0.0000000000      
-5.593700000      0.0000000000      9.6885700000      

ATOMIC_POSITIONS
Direct

C
0.0000000000
1
0.3867830000 0.3992610000 0.6973030000 1 1 1 v 0.0 0.0 0.0 mag 0.0 

O
0.0000000000
1
0.4209450000 0.4424680000 0.5050150000 1 1 1 v 0.0 0.0 0.0 mag 0.0 

Pt
0.0000000000
64
0.0445520000 0.0000000000 0.0222760000 0 0 0 v 0.0 0.0 0.0 mag 0.0 
0.2945520000 0.0000000000 0.0222760000 0 0 0 v 0.0 0.0 0.0 mag 0.0 
0.5445520000 0.0000000000 0.0222760000 0 0 0 v 0.0 0.0 0.0 mag 0.0 
0.7945520000 0.0000000000 0.0222760000 0 0 0 v 0.0 0.0 0.0 mag 0.0 
0.0445520000 0.0000000000 0.2722760000 0 0 0 v 0.0 0.0 0.0 mag 0.0 
0.2945520000 0.0000000000 0.2722760000 0 0 0 v 0.0 0.0 0.0 mag 0.0 
0.5445520000 0.0000000000 0.2722760000 0 0 0 v 0.0 0.0 0.0 mag 0.0 
0.7945520000 0.0000000000 0.2722760000 0 0 0 v 0.0 0.0 0.0 mag 0.0 
0.2945520000 0.0000000000 0.5222760000 0 0 0 v 0.0 0.0 0.0 mag 0.0 
0.5445520000 0.0000000000 0.5222760000 0 0 0 v 0.0 0.0 0.0 mag 0.0 
0.7945520000 0.0000000000 0.5222760000 0 0 0 v 0.0 0.0 0.0 mag 0.0 
0.0445520000 0.0000000000 0.5222760000 0 0 0 v 0.0 0.0 0.0 mag 0.0 
0.0445520000 0.0000000000 0.7722760000 0 0 0 v 0.0 0.0 0.0 mag 0.0 
0.2945520000 0.0000000000 0.7722760000 0 0 0 v 0.0 0.0 0.0 mag 0.0 
0.5445520000 0.0000000000 0.7722760000 0 0 0 v 0.0 0.0 0.0 mag 0.0 
0.7945520000 0.0000000000 0.7722760000 0 0 0 v 0.0 0.0 0.0 mag 0.0 
0.8783710000 0.1200450000 0.1885990000 1 1 1 v 0.0 0.0 0.0 mag 0.0 
0.8775510000 0.1205120000 0.4381190000 1 1 1 v 0.0 0.0 0.0 mag 0.0 
0.8792980000 0.1199490000 0.9382020000 1 1 1 v 0.0 0.0 0.0 mag 0.0 
0.6274800000 0.1204900000 0.1880910000 1 1 1 v 0.0 0.0 0.0 mag 0.0 
0.3790780000 0.1200760000 0.1897230000 1 1 1 v 0.0 0.0 0.0 mag 0.0 
0.1293130000 0.1201590000 0.1888170000 1 1 1 v 0.0 0.0 0.0 mag 0.0 
0.8768920000 0.1211420000 0.6867230000 1 1 1 v 0.0 0.0 0.0 mag 0.0 
0.1282870000 0.1207530000 0.9374830000 1 1 1 v 0.0 0.0 0.0 mag 0.0 
0.6272500000 0.1218670000 0.4392630000 1 1 1 v 0.0 0.0 0.0 mag 0.0 
0.3772790000 0.1211430000 0.9374940000 1 1 1 v 0.0 0.0 0.0 mag 0.0 
0.1291940000 0.1207580000 0.4397540000 1 1 1 v 0.0 0.0 0.0 mag 0.0 
0.6275580000 0.1204500000 0.9375250000 1 1 1 v 0.0 0.0 0.0 mag 0.0 
0.6279020000 0.1216870000 0.6883580000 1 1 1 v 0.0 0.0 0.0 mag 0.0 
0.1280170000 0.1216710000 0.6880010000 1 1 1 v 0.0 0.0 0.0 mag 0.0 
0.3782930000 0.1216570000 0.4396190000 1 1 1 v 0.0 0.0 0.0 mag 0.0 
0.3777800000 0.1226010000 0.6884030000 1 1 1 v 0.0 0.0 0.0 mag 0.0 
0.9620550000 0.2380020000 0.8534070000 1 1 1 v 0.0 0.0 0.0 mag 0.0 
0.9625350000 0.2374010000 0.1043270000 1 1 1 v 0.0 0.0 0.0 mag 0.0 
0.9607100000 0.2380170000 0.3550730000 1 1 1 v 0.0 0.0 0.0 mag 0.0 
0.4612270000 0.2386930000 0.1059520000 1 1 1 v 0.0 0.0 0.0 mag 0.0 
0.7116480000 0.2382780000 0.1054600000 1 1 1 v 0.0 0.0 0.0 mag 0.0 
0.7105820000 0.2391970000 0.3555150000 1 1 1 v 0.0 0.0 0.0 mag 0.0 
0.9594700000 0.2393200000 0.6039690000 1 1 1 v 0.0 0.0 0.0 mag 0.0 
0.2123730000 0.2377080000 0.1038560000 1 1 1 v 0.0 0.0 0.0 mag 0.0 
0.4608190000 0.2409780000 0.3573070000 1 1 1 v 0.0 0.0 0.0 mag 0.0 
0.2123050000 0.2411680000 0.8522840000 1 1 1 v 0.0 0.0 0.0 mag 0.0 
0.7128250000 0.2389860000 0.8562390000 1 1 1 v 0.0 0.0 0.0 mag 0.0 
0.7064160000 0.2432540000 0.6036620000 1 1 1 v 0.0 0.0 0.0 mag 0.0 
0.2107740000 0.2396580000 0.3560030000 1 1 1 v 0.0 0.0 0.0 mag 0.0 
0.4611760000 0.2411650000 0.8553750000 1 1 1 v 0.0 0.0 0.0 mag 0.0 
0.4615660000 0.2427280000 0.6060520000 1 1 1 v 0.0 0.0 0.0 mag 0.0 
0.2131080000 0.2432970000 0.6041610000 1 1 1 v 0.0 0.0 0.0 mag 0.0 
0.0399250000 0.3581510000 0.2683310000 1 1 1 v 0.0 0.0 0.0 mag 0.0 
0.5448810000 0.3595700000 0.2752550000 1 1 1 v 0.0 0.0 0.0 mag 0.0 
0.0388590000 0.3588930000 0.5194450000 1 1 1 v 0.0 0.0 0.0 mag 0.0 
0.5483640000 0.3588890000 0.0300680000 1 1 1 v 0.0 0.0 0.0 mag 0.0 
0.0449930000 0.3591920000 0.0207090000 1 1 1 v 0.0 0.0 0.0 mag 0.0 
0.7940970000 0.3596650000 0.2739360000 1 1 1 v 0.0 0.0 0.0 mag 0.0 
0.2961990000 0.3605240000 0.0246910000 1 1 1 v 0.0 0.0 0.0 mag 0.0 
0.8047330000 0.3608070000 0.7793920000 1 1 1 v 0.0 0.0 0.0 mag 0.0 
0.8011690000 0.3594420000 0.0294880000 1 1 1 v 0.0 0.0 0.0 mag 0.0 
0.7952400000 0.3611300000 0.5233890000 1 1 1 v 0.0 0.0 0.0 mag 0.0 
0.0432030000 0.3605550000 0.7719130000 1 1 1 v 0.0 0.0 0.0 mag 0.0 
0.2891980000 0.3578810000 0.2619750000 1 1 1 v 0.0 0.0 0.0 mag 0.0 
0.5598390000 0.3699880000 0.5365860000 1 1 1 v 0.0 0.0 0.0 mag 0.0 
0.5670900000 0.3615230000 0.7896430000 1 1 1 v 0.0 0.0 0.0 mag 0.0 
0.2866160000 0.3679730000 0.7808610000 1 1 1 v 0.0 0.0 0.0 mag 0.0 
0.2850750000 0.3675590000 0.5063590000 1 1 1 v 0.0 0.0 0.0 mag 0.0 

