ATOMIC_SPECIES
H   1.008         H_ONCV_PBE-1.0.upf
Au  196.966569    Au_ONCV_PBE-1.0.upf

NUMERICAL_ORBITAL
H_gga_6au_100Ry_2s1p.orb
Au_gga_7au_100Ry_4s2p2d1f.orb

LATTICE_CONSTANT
1.8897261258369282 

LATTICE_VECTORS
11.535200000      0.0000000000      0.0000000000      
0.0000000000      19.063800000      0.0000000000      
-5.767600000      0.0000000000      9.9897700000      

ATOMIC_POSITIONS
Direct

H
0.0000000000
2
0.5162500000 0.5348490000 0.6614500000 1 1 1 v 0.0 0.0 0.0 mag 0.0 
0.4201760000 0.5347950000 0.5647370000 1 1 1 v 0.0 0.0 0.0 mag 0.0 

Au
0.0000000000
64
0.0400000000 0.1000000000 0.0400000000 0 0 0 v 0.0 0.0 0.0 mag 0.0 
0.2900000000 0.1000000000 0.0400000000 0 0 0 v 0.0 0.0 0.0 mag 0.0 
0.5400000000 0.1000000000 0.0400000000 0 0 0 v 0.0 0.0 0.0 mag 0.0 
0.7900000000 0.1000000000 0.0400000000 0 0 0 v 0.0 0.0 0.0 mag 0.0 
0.0400000000 0.1000000000 0.2900000000 0 0 0 v 0.0 0.0 0.0 mag 0.0 
0.2900000000 0.1000000000 0.2900000000 0 0 0 v 0.0 0.0 0.0 mag 0.0 
0.5400000000 0.1000000000 0.2900000000 0 0 0 v 0.0 0.0 0.0 mag 0.0 
0.7900000000 0.1000000000 0.2900000000 0 0 0 v 0.0 0.0 0.0 mag 0.0 
0.0400000000 0.1000000000 0.5400000000 0 0 0 v 0.0 0.0 0.0 mag 0.0 
0.2900000000 0.1000000000 0.5400000000 0 0 0 v 0.0 0.0 0.0 mag 0.0 
0.5400000000 0.1000000000 0.5400000000 0 0 0 v 0.0 0.0 0.0 mag 0.0 
0.7900000000 0.1000000000 0.5400000000 0 0 0 v 0.0 0.0 0.0 mag 0.0 
0.0400000000 0.1000000000 0.7900000000 0 0 0 v 0.0 0.0 0.0 mag 0.0 
0.2900000000 0.1000000000 0.7900000000 0 0 0 v 0.0 0.0 0.0 mag 0.0 
0.5400000000 0.1000000000 0.7900000000 0 0 0 v 0.0 0.0 0.0 mag 0.0 
0.7900000000 0.1000000000 0.7900000000 0 0 0 v 0.0 0.0 0.0 mag 0.0 
0.1233330000 0.2235120000 0.2066670000 0 0 0 v 0.0 0.0 0.0 mag 0.0 
0.3733330000 0.2235120000 0.2066670000 0 0 0 v 0.0 0.0 0.0 mag 0.0 
0.6233330000 0.2235120000 0.2066670000 0 0 0 v 0.0 0.0 0.0 mag 0.0 
0.8733330000 0.2235120000 0.2066670000 0 0 0 v 0.0 0.0 0.0 mag 0.0 
0.1233330000 0.2235120000 0.4566670000 0 0 0 v 0.0 0.0 0.0 mag 0.0 
0.3733330000 0.2235120000 0.4566670000 0 0 0 v 0.0 0.0 0.0 mag 0.0 
0.6233330000 0.2235120000 0.4566670000 0 0 0 v 0.0 0.0 0.0 mag 0.0 
0.8733330000 0.2235120000 0.4566670000 0 0 0 v 0.0 0.0 0.0 mag 0.0 
0.1233330000 0.2235120000 0.7066670000 0 0 0 v 0.0 0.0 0.0 mag 0.0 
0.3733330000 0.2235120000 0.7066670000 0 0 0 v 0.0 0.0 0.0 mag 0.0 
0.6233330000 0.2235120000 0.7066670000 0 0 0 v 0.0 0.0 0.0 mag 0.0 
0.8733330000 0.2235120000 0.7066670000 0 0 0 v 0.0 0.0 0.0 mag 0.0 
0.1233330000 0.2235120000 0.9566670000 0 0 0 v 0.0 0.0 0.0 mag 0.0 
0.3733330000 0.2235120000 0.9566670000 0 0 0 v 0.0 0.0 0.0 mag 0.0 
0.6233330000 0.2235120000 0.9566670000 0 0 0 v 0.0 0.0 0.0 mag 0.0 
0.8733330000 0.2235120000 0.9566670000 0 0 0 v 0.0 0.0 0.0 mag 0.0 
0.2072600000 0.3461580000 0.1228780000 1 1 1 v 0.0 0.0 0.0 mag 0.0 
0.4570950000 0.3466120000 0.1234800000 1 1 1 v 0.0 0.0 0.0 mag 0.0 
0.7066000000 0.3473250000 0.1239090000 1 1 1 v 0.0 0.0 0.0 mag 0.0 
0.9566060000 0.3471220000 0.1236100000 1 1 1 v 0.0 0.0 0.0 mag 0.0 
0.2064950000 0.3473930000 0.3723370000 1 1 1 v 0.0 0.0 0.0 mag 0.0 
0.4564350000 0.3489090000 0.3759400000 1 1 1 v 0.0 0.0 0.0 mag 0.0 
0.7061160000 0.3467640000 0.3740230000 1 1 1 v 0.0 0.0 0.0 mag 0.0 
0.9562330000 0.3472900000 0.3735440000 1 1 1 v 0.0 0.0 0.0 mag 0.0 
0.2084190000 0.3481550000 0.6228920000 1 1 1 v 0.0 0.0 0.0 mag 0.0 
0.4565380000 0.3489820000 0.6236380000 1 1 1 v 0.0 0.0 0.0 mag 0.0 
0.7041490000 0.3489380000 0.6236730000 1 1 1 v 0.0 0.0 0.0 mag 0.0 
0.9566940000 0.3465960000 0.6230190000 1 1 1 v 0.0 0.0 0.0 mag 0.0 
0.2072310000 0.3461320000 0.8729090000 1 1 1 v 0.0 0.0 0.0 mag 0.0 
0.4572560000 0.3481730000 0.8717850000 1 1 1 v 0.0 0.0 0.0 mag 0.0 
0.7078120000 0.3473770000 0.8736920000 1 1 1 v 0.0 0.0 0.0 mag 0.0 
0.9572430000 0.3461360000 0.8728600000 1 1 1 v 0.0 0.0 0.0 mag 0.0 
0.0413270000 0.4743070000 0.0388840000 1 1 1 v 0.0 0.0 0.0 mag 0.0 
0.2901350000 0.4737550000 0.0386730000 1 1 1 v 0.0 0.0 0.0 mag 0.0 
0.5400160000 0.4742770000 0.0436420000 1 1 1 v 0.0 0.0 0.0 mag 0.0 
0.7941700000 0.4751110000 0.0446510000 1 1 1 v 0.0 0.0 0.0 mag 0.0 
0.0357630000 0.4751190000 0.2861980000 1 1 1 v 0.0 0.0 0.0 mag 0.0 
0.2864720000 0.4741410000 0.2845910000 1 1 1 v 0.0 0.0 0.0 mag 0.0 
0.5392840000 0.4742530000 0.2895630000 1 1 1 v 0.0 0.0 0.0 mag 0.0 
0.7890400000 0.4739410000 0.2913110000 1 1 1 v 0.0 0.0 0.0 mag 0.0 
0.0367200000 0.4742680000 0.5402450000 1 1 1 v 0.0 0.0 0.0 mag 0.0 
0.2769420000 0.4760580000 0.5308300000 1 1 1 v 0.0 0.0 0.0 mag 0.0 
0.5434490000 0.4803340000 0.5365370000 1 1 1 v 0.0 0.0 0.0 mag 0.0 
0.7906650000 0.4742400000 0.5409510000 1 1 1 v 0.0 0.0 0.0 mag 0.0 
0.0414240000 0.4737280000 0.7899700000 1 1 1 v 0.0 0.0 0.0 mag 0.0 
0.2907670000 0.4739990000 0.7895050000 1 1 1 v 0.0 0.0 0.0 mag 0.0 
0.5495430000 0.4760790000 0.8035490000 1 1 1 v 0.0 0.0 0.0 mag 0.0 
0.7955960000 0.4740870000 0.7937910000 1 1 1 v 0.0 0.0 0.0 mag 0.0 

