ATOMIC_SPECIES
H 1.008 H_ONCV_PBE-1.0.upf upf201
Au 196.967 Au_ONCV_PBE-1.0.upf upf201

NUMERICAL_ORBITAL
H_gga_6au_100Ry_2s1p.orb
Au_gga_7au_100Ry_4s2p2d1f.orb

LATTICE_CONSTANT
1.889726

LATTICE_VECTORS
   11.5351970472     0.0000000000     0.0000000000 #latvec1
    0.0000000000    19.0637951168     0.0000000000 #latvec2
   -5.7675985217     0.0000000000     9.9897736794 #latvec3

ATOMIC_POSITIONS
Direct

H #label
0 #magnetism
2 #number of atoms
    0.4830463934     0.6286187826     0.6634945801 m  1  1  1
    0.4189893759     0.6369695130     0.6003342480 m  1  1  1

Au #label
0 #magnetism
64 #number of atoms
    0.0400000000     0.1000000000     0.0400000000 m  0  0  0
    0.2900000000     0.1000000000     0.0400000000 m  0  0  0
    0.5400000000     0.1000000000     0.0400000000 m  0  0  0
    0.7900000000     0.1000000000     0.0400000000 m  0  0  0
    0.0400000000     0.1000000000     0.2900000000 m  0  0  0
    0.2900000000     0.1000000000     0.2900000000 m  0  0  0
    0.5400000000     0.1000000000     0.2900000000 m  0  0  0
    0.7900000000     0.1000000000     0.2900000000 m  0  0  0
    0.0400000000     0.1000000000     0.5400000000 m  0  0  0
    0.2900000000     0.1000000000     0.5400000000 m  0  0  0
    0.5400000000     0.1000000000     0.5400000000 m  0  0  0
    0.7900000000     0.1000000000     0.5400000000 m  0  0  0
    0.0400000000     0.1000000000     0.7900000000 m  0  0  0
    0.2900000000     0.1000000000     0.7900000000 m  0  0  0
    0.5400000000     0.1000000000     0.7900000000 m  0  0  0
    0.7900000000     0.1000000000     0.7900000000 m  0  0  0
    0.1233330000     0.2235120000     0.2066670000 m  0  0  0
    0.3733330000     0.2235120000     0.2066670000 m  0  0  0
    0.6233330000     0.2235120000     0.2066670000 m  0  0  0
    0.8733330000     0.2235120000     0.2066670000 m  0  0  0
    0.1233330000     0.2235120000     0.4566670000 m  0  0  0
    0.3733330000     0.2235120000     0.4566670000 m  0  0  0
    0.6233330000     0.2235120000     0.4566670000 m  0  0  0
    0.8733330000     0.2235120000     0.4566670000 m  0  0  0
    0.1233330000     0.2235120000     0.7066670000 m  0  0  0
    0.3733330000     0.2235120000     0.7066670000 m  0  0  0
    0.6233330000     0.2235120000     0.7066670000 m  0  0  0
    0.8733330000     0.2235120000     0.7066670000 m  0  0  0
    0.1233330000     0.2235120000     0.9566670000 m  0  0  0
    0.3733330000     0.2235120000     0.9566670000 m  0  0  0
    0.6233330000     0.2235120000     0.9566670000 m  0  0  0
    0.8733330000     0.2235120000     0.9566670000 m  0  0  0
    0.2066107543     0.3470721988     0.1232888243 m  1  1  1
    0.4571577511     0.3473496034     0.1235306875 m  1  1  1
    0.7066913809     0.3475534255     0.1234620231 m  1  1  1
    0.9563847593     0.3474445522     0.1235982349 m  1  1  1
    0.2061872531     0.3470640038     0.3728479456 m  1  1  1
    0.4564353635     0.3469636077     0.3727771650 m  1  1  1
    0.7066900841     0.3474769854     0.3733031494 m  1  1  1
    0.9565473079     0.3475449248     0.3733177386 m  1  1  1
    0.2061869688     0.3471437407     0.6235354150 m  1  1  1
    0.4565475433     0.3466351591     0.6235029781 m  1  1  1
    0.7072753695     0.3469684027     0.6236014080 m  1  1  1
    0.9565071618     0.3473744404     0.6229151628 m  1  1  1
    0.2066379528     0.3470451906     0.8733158043 m  1  1  1
    0.4565038503     0.3471476075     0.8738115189 m  1  1  1
    0.7071662090     0.3470796355     0.8738344180 m  1  1  1
    0.9567368339     0.3471778821     0.8733918401 m  1  1  1
    0.0404936924     0.4739675514     0.0400059313 m  1  1  1
    0.2899794080     0.4737169117     0.0394867261 m  1  1  1
    0.5401461194     0.4750560531     0.0402587537 m  1  1  1
    0.7902662764     0.4749976838     0.0402112396 m  1  1  1
    0.0397866620     0.4749836975     0.2898449737 m  1  1  1
    0.2901082098     0.4743731868     0.2903246926 m  1  1  1
    0.5399311661     0.4747379211     0.2899423485 m  1  1  1
    0.7899612902     0.4750587512     0.2900492535 m  1  1  1
    0.0397754191     0.4750457370     0.5398891624 m  1  1  1
    0.2893344784     0.4730499115     0.5397606068 m  1  1  1
    0.5401990824     0.4727156685     0.5398936238 m  1  1  1
    0.7901389034     0.4747388864     0.5401690217 m  1  1  1
    0.0403105416     0.4741127256     0.7897978914 m  1  1  1
    0.2903014824     0.4746958031     0.7897786866 m  1  1  1
    0.5403120550     0.4731111027     0.7906998819 m  1  1  1
    0.7899591866     0.4743942926     0.7901301966 m  1  1  1
