ATOMIC_SPECIES
Li  6.94          Li_ONCV_PBE-1.2.upf
Si  28.085        Si_ONCV_PBE-1.2.upf

NUMERICAL_ORBITAL
Li_gga_8au_100Ry_4s1p.orb
Si_gga_8au_100Ry_2s2p1d.orb

LATTICE_CONSTANT
1.8897261258369282 

LATTICE_VECTORS
10.862000000      0.0000000000      0.0000000000      
0.0000000000      10.862000000      0.0000000000      
0.0000000000      0.0000000000      10.862000000      

ATOMIC_POSITIONS
Direct

Li
0.0000000000
1
0.5337460000 0.5337360000 0.5337270000 1 1 1 v 0.0 0.0 0.0 mag 0.0 

Si
0.0000000000
64
0.1283810000 0.3774100000 0.1283760000 1 1 1 v 0.0 0.0 0.0 mag 0.0 
0.1278580000 0.3776080000 0.6277800000 1 1 1 v 0.0 0.0 0.0 mag 0.0 
0.1272870000 0.8778410000 0.1272870000 1 1 1 v 0.0 0.0 0.0 mag 0.0 
0.1268090000 0.8789530000 0.6270910000 1 1 1 v 0.0 0.0 0.0 mag 0.0 
0.6277900000 0.3776100000 0.1278510000 1 1 1 v 0.0 0.0 0.0 mag 0.0 
0.6336760000 0.3711070000 0.6336780000 1 1 1 v 0.0 0.0 0.0 mag 0.0 
0.6270950000 0.8789540000 0.1268030000 1 1 1 v 0.0 0.0 0.0 mag 0.0 
0.6278230000 0.8786240000 0.6278140000 1 1 1 v 0.0 0.0 0.0 mag 0.0 
0.0035130000 0.0035200000 0.2524110000 1 1 1 v 0.0 0.0 0.0 mag 0.0 
0.0022590000 0.0022620000 0.7531950000 1 1 1 v 0.0 0.0 0.0 mag 0.0 
0.0035300000 0.5026540000 0.2524250000 1 1 1 v 0.0 0.0 0.0 mag 0.0 
0.0030470000 0.5027380000 0.7526030000 1 1 1 v 0.0 0.0 0.0 mag 0.0 
0.5026450000 0.0035300000 0.2524310000 1 1 1 v 0.0 0.0 0.0 mag 0.0 
0.5027330000 0.0030440000 0.7526110000 1 1 1 v 0.0 0.0 0.0 mag 0.0 
0.5042990000 0.5043020000 0.2526460000 1 1 1 v 0.0 0.0 0.0 mag 0.0 
0.5010910000 0.5010860000 0.7581760000 1 1 1 v 0.0 0.0 0.0 mag 0.0 
0.1283800000 0.1283800000 0.3774160000 1 1 1 v 0.0 0.0 0.0 mag 0.0 
0.1272880000 0.1272820000 0.8778370000 1 1 1 v 0.0 0.0 0.0 mag 0.0 
0.1278600000 0.6277830000 0.3776150000 1 1 1 v 0.0 0.0 0.0 mag 0.0 
0.1268080000 0.6270850000 0.8789490000 1 1 1 v 0.0 0.0 0.0 mag 0.0 
0.6277870000 0.1278640000 0.3776080000 1 1 1 v 0.0 0.0 0.0 mag 0.0 
0.6270950000 0.1268060000 0.8789440000 1 1 1 v 0.0 0.0 0.0 mag 0.0 
0.6336730000 0.6336940000 0.3711070000 1 1 1 v 0.0 0.0 0.0 mag 0.0 
0.6278220000 0.6278190000 0.8786130000 1 1 1 v 0.0 0.0 0.0 mag 0.0 
0.0035140000 0.2524080000 0.0035100000 1 1 1 v 0.0 0.0 0.0 mag 0.0 
0.0035270000 0.2524290000 0.5026480000 1 1 1 v 0.0 0.0 0.0 mag 0.0 
0.0022610000 0.7531990000 0.0022590000 1 1 1 v 0.0 0.0 0.0 mag 0.0 
0.0030480000 0.7526120000 0.5027390000 1 1 1 v 0.0 0.0 0.0 mag 0.0 
0.5026450000 0.2524170000 0.0035340000 1 1 1 v 0.0 0.0 0.0 mag 0.0 
0.5042940000 0.2526390000 0.5043110000 1 1 1 v 0.0 0.0 0.0 mag 0.0 
0.5027320000 0.7526020000 0.0030560000 1 1 1 v 0.0 0.0 0.0 mag 0.0 
0.5010830000 0.7581700000 0.5011060000 1 1 1 v 0.0 0.0 0.0 mag 0.0 
0.3791810000 0.3791770000 0.3791810000 1 1 1 v 0.0 0.0 0.0 mag 0.0 
0.3749870000 0.3749770000 0.8794760000 1 1 1 v 0.0 0.0 0.0 mag 0.0 
0.3749870000 0.8794780000 0.3749890000 1 1 1 v 0.0 0.0 0.0 mag 0.0 
0.3786920000 0.8795280000 0.8795330000 1 1 1 v 0.0 0.0 0.0 mag 0.0 
0.8794850000 0.3749940000 0.3749810000 1 1 1 v 0.0 0.0 0.0 mag 0.0 
0.8795390000 0.3786910000 0.8795230000 1 1 1 v 0.0 0.0 0.0 mag 0.0 
0.8795380000 0.8795380000 0.3786830000 1 1 1 v 0.0 0.0 0.0 mag 0.0 
0.8769170000 0.8769150000 0.8769040000 1 1 1 v 0.0 0.0 0.0 mag 0.0 
0.2523980000 0.0035080000 0.0035170000 1 1 1 v 0.0 0.0 0.0 mag 0.0 
0.2524170000 0.0035260000 0.5026550000 1 1 1 v 0.0 0.0 0.0 mag 0.0 
0.2524180000 0.5026430000 0.0035330000 1 1 1 v 0.0 0.0 0.0 mag 0.0 
0.2526420000 0.5042970000 0.5043090000 1 1 1 v 0.0 0.0 0.0 mag 0.0 
0.7531950000 0.0022630000 0.0022610000 1 1 1 v 0.0 0.0 0.0 mag 0.0 
0.7526060000 0.0030550000 0.5027360000 1 1 1 v 0.0 0.0 0.0 mag 0.0 
0.7526100000 0.5027410000 0.0030470000 1 1 1 v 0.0 0.0 0.0 mag 0.0 
0.7581700000 0.5010970000 0.5010950000 1 1 1 v 0.0 0.0 0.0 mag 0.0 
0.3774120000 0.1283730000 0.1283770000 1 1 1 v 0.0 0.0 0.0 mag 0.0 
0.3776070000 0.1278490000 0.6277850000 1 1 1 v 0.0 0.0 0.0 mag 0.0 
0.3776060000 0.6277810000 0.1278580000 1 1 1 v 0.0 0.0 0.0 mag 0.0 
0.3711050000 0.6336650000 0.6336840000 1 1 1 v 0.0 0.0 0.0 mag 0.0 
0.8778520000 0.1272900000 0.1272800000 1 1 1 v 0.0 0.0 0.0 mag 0.0 
0.8789590000 0.1268110000 0.6270830000 1 1 1 v 0.0 0.0 0.0 mag 0.0 
0.8789590000 0.6270970000 0.1268020000 1 1 1 v 0.0 0.0 0.0 mag 0.0 
0.8786230000 0.6278240000 0.6278110000 1 1 1 v 0.0 0.0 0.0 mag 0.0 
0.2537550000 0.2537580000 0.2537670000 1 1 1 v 0.0 0.0 0.0 mag 0.0 
0.2516010000 0.2516040000 0.7522110000 1 1 1 v 0.0 0.0 0.0 mag 0.0 
0.2515990000 0.7522070000 0.2516200000 1 1 1 v 0.0 0.0 0.0 mag 0.0 
0.2484710000 0.7580110000 0.7580230000 1 1 1 v 0.0 0.0 0.0 mag 0.0 
0.7522100000 0.2516130000 0.2516110000 1 1 1 v 0.0 0.0 0.0 mag 0.0 
0.7580180000 0.2484770000 0.7580130000 1 1 1 v 0.0 0.0 0.0 mag 0.0 
0.7580160000 0.7580250000 0.2484760000 1 1 1 v 0.0 0.0 0.0 mag 0.0 
0.7518330000 0.7518350000 0.7518300000 1 1 1 v 0.0 0.0 0.0 mag 0.0 

