ATOMIC_SPECIES
Li  6.94          Li_ONCV_PBE-1.2.upf
Si  28.085        Si_ONCV_PBE-1.2.upf

NUMERICAL_ORBITAL
Li_gga_8au_100Ry_4s1p.orb
Si_gga_8au_100Ry_2s2p1d.orb

LATTICE_CONSTANT
1.8897261258369282 

LATTICE_VECTORS
10.862000000      0.0000000000      0.0000000000      
0.0000000000      10.862000000      0.0000000000      
0.0000000000      0.0000000000      10.862000000      

ATOMIC_POSITIONS
Direct

Li
0.0000000000
1
0.5338220000 0.5338180000 0.5338150000 1 1 1 v 0.0 0.0 0.0 mag 0.0 

Si
0.0000000000
64
0.1284750000 0.3774030000 0.1284700000 1 1 1 v 0.0 0.0 0.0 mag 0.0 
0.1278940000 0.3776510000 0.6278170000 1 1 1 v 0.0 0.0 0.0 mag 0.0 
0.1272740000 0.8778860000 0.1272750000 1 1 1 v 0.0 0.0 0.0 mag 0.0 
0.1268740000 0.8789530000 0.6271310000 1 1 1 v 0.0 0.0 0.0 mag 0.0 
0.6278230000 0.3776550000 0.1278840000 1 1 1 v 0.0 0.0 0.0 mag 0.0 
0.6337750000 0.3711290000 0.6337710000 1 1 1 v 0.0 0.0 0.0 mag 0.0 
0.6271280000 0.8789560000 0.1268670000 1 1 1 v 0.0 0.0 0.0 mag 0.0 
0.6277610000 0.8786210000 0.6277560000 1 1 1 v 0.0 0.0 0.0 mag 0.0 
0.0036120000 0.0036210000 0.2524110000 1 1 1 v 0.0 0.0 0.0 mag 0.0 
0.0022330000 0.0022420000 0.7532450000 1 1 1 v 0.0 0.0 0.0 mag 0.0 
0.0035560000 0.5026710000 0.2524510000 1 1 1 v 0.0 0.0 0.0 mag 0.0 
0.0030590000 0.5027460000 0.7526460000 1 1 1 v 0.0 0.0 0.0 mag 0.0 
0.5026660000 0.0035580000 0.2524600000 1 1 1 v 0.0 0.0 0.0 mag 0.0 
0.5027430000 0.0030580000 0.7526580000 1 1 1 v 0.0 0.0 0.0 mag 0.0 
0.5044320000 0.5044250000 0.2527680000 1 1 1 v 0.0 0.0 0.0 mag 0.0 
0.5010810000 0.5010720000 0.7582980000 1 1 1 v 0.0 0.0 0.0 mag 0.0 
0.1284750000 0.1284710000 0.3774080000 1 1 1 v 0.0 0.0 0.0 mag 0.0 
0.1272750000 0.1272650000 0.8778870000 1 1 1 v 0.0 0.0 0.0 mag 0.0 
0.1278950000 0.6278190000 0.3776590000 1 1 1 v 0.0 0.0 0.0 mag 0.0 
0.1268720000 0.6271220000 0.8789550000 1 1 1 v 0.0 0.0 0.0 mag 0.0 
0.6278210000 0.1278980000 0.3776490000 1 1 1 v 0.0 0.0 0.0 mag 0.0 
0.6271290000 0.1268690000 0.8789480000 1 1 1 v 0.0 0.0 0.0 mag 0.0 
0.6337690000 0.6337940000 0.3711260000 1 1 1 v 0.0 0.0 0.0 mag 0.0 
0.6277600000 0.6277640000 0.8786120000 1 1 1 v 0.0 0.0 0.0 mag 0.0 
0.0036130000 0.2524140000 0.0036080000 1 1 1 v 0.0 0.0 0.0 mag 0.0 
0.0035510000 0.2524580000 0.5026610000 1 1 1 v 0.0 0.0 0.0 mag 0.0 
0.0022360000 0.7532500000 0.0022350000 1 1 1 v 0.0 0.0 0.0 mag 0.0 
0.0030600000 0.7526570000 0.5027440000 1 1 1 v 0.0 0.0 0.0 mag 0.0 
0.5026660000 0.2524460000 0.0035610000 1 1 1 v 0.0 0.0 0.0 mag 0.0 
0.5044260000 0.2527620000 0.5044350000 1 1 1 v 0.0 0.0 0.0 mag 0.0 
0.5027430000 0.7526470000 0.0030710000 1 1 1 v 0.0 0.0 0.0 mag 0.0 
0.5010750000 0.7582890000 0.5010930000 1 1 1 v 0.0 0.0 0.0 mag 0.0 
0.3793770000 0.3793740000 0.3793770000 1 1 1 v 0.0 0.0 0.0 mag 0.0 
0.3749710000 0.3749610000 0.8794520000 1 1 1 v 0.0 0.0 0.0 mag 0.0 
0.3749710000 0.8794480000 0.3749740000 1 1 1 v 0.0 0.0 0.0 mag 0.0 
0.3786810000 0.8796350000 0.8796450000 1 1 1 v 0.0 0.0 0.0 mag 0.0 
0.8794560000 0.3749800000 0.3749630000 1 1 1 v 0.0 0.0 0.0 mag 0.0 
0.8796470000 0.3786820000 0.8796340000 1 1 1 v 0.0 0.0 0.0 mag 0.0 
0.8796460000 0.8796470000 0.3786720000 1 1 1 v 0.0 0.0 0.0 mag 0.0 
0.8768390000 0.8768360000 0.8768270000 1 1 1 v 0.0 0.0 0.0 mag 0.0 
0.2524020000 0.0036090000 0.0036170000 1 1 1 v 0.0 0.0 0.0 mag 0.0 
0.2524450000 0.0035550000 0.5026710000 1 1 1 v 0.0 0.0 0.0 mag 0.0 
0.2524480000 0.5026570000 0.0035590000 1 1 1 v 0.0 0.0 0.0 mag 0.0 
0.2527690000 0.5044230000 0.5044350000 1 1 1 v 0.0 0.0 0.0 mag 0.0 
0.7532440000 0.0022410000 0.0022370000 1 1 1 v 0.0 0.0 0.0 mag 0.0 
0.7526500000 0.0030700000 0.5027420000 1 1 1 v 0.0 0.0 0.0 mag 0.0 
0.7526550000 0.5027460000 0.0030610000 1 1 1 v 0.0 0.0 0.0 mag 0.0 
0.7582940000 0.5010840000 0.5010800000 1 1 1 v 0.0 0.0 0.0 mag 0.0 
0.3774070000 0.1284640000 0.1284710000 1 1 1 v 0.0 0.0 0.0 mag 0.0 
0.3776510000 0.1278820000 0.6278220000 1 1 1 v 0.0 0.0 0.0 mag 0.0 
0.3776480000 0.6278160000 0.1278940000 1 1 1 v 0.0 0.0 0.0 mag 0.0 
0.3711240000 0.6337630000 0.6337830000 1 1 1 v 0.0 0.0 0.0 mag 0.0 
0.8778980000 0.1272760000 0.1272670000 1 1 1 v 0.0 0.0 0.0 mag 0.0 
0.8789600000 0.1268730000 0.6271200000 1 1 1 v 0.0 0.0 0.0 mag 0.0 
0.8789580000 0.6271350000 0.1268660000 1 1 1 v 0.0 0.0 0.0 mag 0.0 
0.8786160000 0.6277660000 0.6277520000 1 1 1 v 0.0 0.0 0.0 mag 0.0 
0.2538840000 0.2538860000 0.2538930000 1 1 1 v 0.0 0.0 0.0 mag 0.0 
0.2515630000 0.2515660000 0.7522510000 1 1 1 v 0.0 0.0 0.0 mag 0.0 
0.2515630000 0.7522430000 0.2515810000 1 1 1 v 0.0 0.0 0.0 mag 0.0 
0.2486320000 0.7580310000 0.7580450000 1 1 1 v 0.0 0.0 0.0 mag 0.0 
0.7522470000 0.2515770000 0.2515710000 1 1 1 v 0.0 0.0 0.0 mag 0.0 
0.7580400000 0.2486370000 0.7580360000 1 1 1 v 0.0 0.0 0.0 mag 0.0 
0.7580410000 0.7580490000 0.2486320000 1 1 1 v 0.0 0.0 0.0 mag 0.0 
0.7517110000 0.7517130000 0.7517090000 1 1 1 v 0.0 0.0 0.0 mag 0.0 

