ATOMIC_SPECIES
H   1.008         H_ONCV_PBE-1.0.upf
Au  196.966569    Au_ONCV_PBE-1.0.upf

NUMERICAL_ORBITAL
H_gga_6au_100Ry_2s1p.orb
Au_gga_7au_100Ry_4s2p2d1f.orb

LATTICE_CONSTANT
1.8897261258369282 

LATTICE_VECTORS
11.535200000      0.0000000000      0.0000000000      
0.0000000000      19.063800000      0.0000000000      
-5.767600000      0.0000000000      9.9897700000      

ATOMIC_POSITIONS
Direct

H
0.0000000000
2
0.5828760000 0.5286530000 0.6995990000 1 1 1 v 0.0 0.0 0.0 mag 0.0 
0.3814710000 0.5289730000 0.4987570000 1 1 1 v 0.0 0.0 0.0 mag 0.0 

Au
0.0000000000
64
0.0400000000 0.1000000000 0.0400000000 0 0 0 v 0.0 0.0 0.0 mag 0.0 
0.2900000000 0.1000000000 0.0400000000 0 0 0 v 0.0 0.0 0.0 mag 0.0 
0.5400000000 0.1000000000 0.0400000000 0 0 0 v 0.0 0.0 0.0 mag 0.0 
0.7900000000 0.1000000000 0.0400000000 0 0 0 v 0.0 0.0 0.0 mag 0.0 
0.0400000000 0.1000000000 0.2900000000 0 0 0 v 0.0 0.0 0.0 mag 0.0 
0.2900000000 0.1000000000 0.2900000000 0 0 0 v 0.0 0.0 0.0 mag 0.0 
0.5400000000 0.1000000000 0.2900000000 0 0 0 v 0.0 0.0 0.0 mag 0.0 
0.7900000000 0.1000000000 0.2900000000 0 0 0 v 0.0 0.0 0.0 mag 0.0 
0.0400000000 0.1000000000 0.5400000000 0 0 0 v 0.0 0.0 0.0 mag 0.0 
0.2900000000 0.1000000000 0.5400000000 0 0 0 v 0.0 0.0 0.0 mag 0.0 
0.5400000000 0.1000000000 0.5400000000 0 0 0 v 0.0 0.0 0.0 mag 0.0 
0.7900000000 0.1000000000 0.5400000000 0 0 0 v 0.0 0.0 0.0 mag 0.0 
0.0400000000 0.1000000000 0.7900000000 0 0 0 v 0.0 0.0 0.0 mag 0.0 
0.2900000000 0.1000000000 0.7900000000 0 0 0 v 0.0 0.0 0.0 mag 0.0 
0.5400000000 0.1000000000 0.7900000000 0 0 0 v 0.0 0.0 0.0 mag 0.0 
0.7900000000 0.1000000000 0.7900000000 0 0 0 v 0.0 0.0 0.0 mag 0.0 
0.1233330000 0.2235120000 0.2066670000 0 0 0 v 0.0 0.0 0.0 mag 0.0 
0.3733330000 0.2235120000 0.2066670000 0 0 0 v 0.0 0.0 0.0 mag 0.0 
0.6233330000 0.2235120000 0.2066670000 0 0 0 v 0.0 0.0 0.0 mag 0.0 
0.8733330000 0.2235120000 0.2066670000 0 0 0 v 0.0 0.0 0.0 mag 0.0 
0.1233330000 0.2235120000 0.4566670000 0 0 0 v 0.0 0.0 0.0 mag 0.0 
0.3733330000 0.2235120000 0.4566670000 0 0 0 v 0.0 0.0 0.0 mag 0.0 
0.6233330000 0.2235120000 0.4566670000 0 0 0 v 0.0 0.0 0.0 mag 0.0 
0.8733330000 0.2235120000 0.4566670000 0 0 0 v 0.0 0.0 0.0 mag 0.0 
0.1233330000 0.2235120000 0.7066670000 0 0 0 v 0.0 0.0 0.0 mag 0.0 
0.3733330000 0.2235120000 0.7066670000 0 0 0 v 0.0 0.0 0.0 mag 0.0 
0.6233330000 0.2235120000 0.7066670000 0 0 0 v 0.0 0.0 0.0 mag 0.0 
0.8733330000 0.2235120000 0.7066670000 0 0 0 v 0.0 0.0 0.0 mag 0.0 
0.1233330000 0.2235120000 0.9566670000 0 0 0 v 0.0 0.0 0.0 mag 0.0 
0.3733330000 0.2235120000 0.9566670000 0 0 0 v 0.0 0.0 0.0 mag 0.0 
0.6233330000 0.2235120000 0.9566670000 0 0 0 v 0.0 0.0 0.0 mag 0.0 
0.8733330000 0.2235120000 0.9566670000 0 0 0 v 0.0 0.0 0.0 mag 0.0 
0.2085380000 0.3464290000 0.1249460000 1 1 1 v 0.0 0.0 0.0 mag 0.0 
0.4562020000 0.3461860000 0.1239650000 1 1 1 v 0.0 0.0 0.0 mag 0.0 
0.7062960000 0.3469310000 0.1239320000 1 1 1 v 0.0 0.0 0.0 mag 0.0 
0.9568980000 0.3469000000 0.1232280000 1 1 1 v 0.0 0.0 0.0 mag 0.0 
0.2060920000 0.3472840000 0.3724240000 1 1 1 v 0.0 0.0 0.0 mag 0.0 
0.4572750000 0.3492620000 0.3781460000 1 1 1 v 0.0 0.0 0.0 mag 0.0 
0.7061710000 0.3466330000 0.3739950000 1 1 1 v 0.0 0.0 0.0 mag 0.0 
0.9562250000 0.3469290000 0.3738810000 1 1 1 v 0.0 0.0 0.0 mag 0.0 
0.2079820000 0.3480430000 0.6223850000 1 1 1 v 0.0 0.0 0.0 mag 0.0 
0.4563240000 0.3480800000 0.6238580000 1 1 1 v 0.0 0.0 0.0 mag 0.0 
0.7020330000 0.3493120000 0.6228970000 1 1 1 v 0.0 0.0 0.0 mag 0.0 
0.9562340000 0.3461780000 0.6239720000 1 1 1 v 0.0 0.0 0.0 mag 0.0 
0.2066900000 0.3456130000 0.8734740000 1 1 1 v 0.0 0.0 0.0 mag 0.0 
0.4577410000 0.3480280000 0.8722130000 1 1 1 v 0.0 0.0 0.0 mag 0.0 
0.7077030000 0.3472960000 0.8740370000 1 1 1 v 0.0 0.0 0.0 mag 0.0 
0.9551680000 0.3464580000 0.8715910000 1 1 1 v 0.0 0.0 0.0 mag 0.0 
0.0406760000 0.4737380000 0.0395900000 1 1 1 v 0.0 0.0 0.0 mag 0.0 
0.2898640000 0.4731520000 0.0403570000 1 1 1 v 0.0 0.0 0.0 mag 0.0 
0.5395310000 0.4728500000 0.0444550000 1 1 1 v 0.0 0.0 0.0 mag 0.0 
0.7923760000 0.4734790000 0.0440010000 1 1 1 v 0.0 0.0 0.0 mag 0.0 
0.0363710000 0.4734750000 0.2879470000 1 1 1 v 0.0 0.0 0.0 mag 0.0 
0.2861180000 0.4751910000 0.2849660000 1 1 1 v 0.0 0.0 0.0 mag 0.0 
0.5390830000 0.4731920000 0.2927710000 1 1 1 v 0.0 0.0 0.0 mag 0.0 
0.7883450000 0.4735910000 0.2919620000 1 1 1 v 0.0 0.0 0.0 mag 0.0 
0.0359980000 0.4728270000 0.5406940000 1 1 1 v 0.0 0.0 0.0 mag 0.0 
0.2796670000 0.4763110000 0.5386730000 1 1 1 v 0.0 0.0 0.0 mag 0.0 
0.5397780000 0.4871260000 0.5404500000 1 1 1 v 0.0 0.0 0.0 mag 0.0 
0.7875990000 0.4731760000 0.5412050000 1 1 1 v 0.0 0.0 0.0 mag 0.0 
0.0398190000 0.4731390000 0.7903000000 1 1 1 v 0.0 0.0 0.0 mag 0.0 
0.2881970000 0.4730190000 0.7920570000 1 1 1 v 0.0 0.0 0.0 mag 0.0 
0.5415450000 0.4762840000 0.8008410000 1 1 1 v 0.0 0.0 0.0 mag 0.0 
0.7952380000 0.4752910000 0.7942040000 1 1 1 v 0.0 0.0 0.0 mag 0.0 

