INPUT_PARAMETERS
# Created by Atomic Simulation Enviroment
calculation                             scf
nspin                                   2
ecutwfc                                 100
ks_solver                               genelpa
symmetry                                0
vdw_method                              d3_bj
smearing_method                         gau
smearing_sigma                          0.002
basis_type                              lcao
mixing_type                             broyden
mixing_ndim                             20
scf_thr                                 1e-07
scf_nmax                                300
cal_force                               1
cal_stress                              0
init_wfc                                atomic
init_chg                                atomic
out_stru                                1
out_chg                                 -1
out_mul                                 1
out_wfc_lcao                            0
out_bandgap                             0
efield_flag                             1
dip_cor_flag                            1
efield_dir                              1
ntype                                   3
dft_functional                          pbe
