ATOMIC_SPECIES
C   12.0          C_ONCV_PBE-1.0.upf
Pt  194.9647917   Pt_ONCV_PBE-1.0.upf
H   1.00782503223 H_ONCV_PBE-1.0.upf

NUMERICAL_ORBITAL
C_gga_7au_100Ry_2s2p1d.orb
Pt_gga_7au_100Ry_4s2p2d1f.orb
H_gga_6au_100Ry_2s1p.orb

LATTICE_CONSTANT
1.889726

LATTICE_VECTORS
12.322695000      0.0000000000      0.0000000000      
0.0000000000      19.999993000      0.0000000000      
-6.161540000      0.0000000000      10.671541000      

ATOMIC_POSITIONS
Direct

C
0.0000000000
54
0.0261590000 0.5029780000 0.0286000000 1 1 1 v 0.0 0.0 0.0 mag 0.0 
0.1598230000 0.5008110000 0.0965850000 1 1 1 v 0.0 0.0 0.0 mag 0.0 
0.2278570000 0.5020130000 0.0314450000 1 1 1 v 0.0 0.0 0.0 mag 0.0 
0.3615840000 0.5036630000 0.0994420000 1 1 1 v 0.0 0.0 0.0 mag 0.0 
0.4274120000 0.5021910000 0.0313390000 1 1 1 v 0.0 0.0 0.0 mag 0.0 
0.5603910000 0.5028640000 0.0967530000 1 1 1 v 0.0 0.0 0.0 mag 0.0 
0.6260420000 0.5014240000 0.0284920000 1 1 1 v 0.0 0.0 0.0 mag 0.0 
0.7590220000 0.5017220000 0.0940890000 1 1 1 v 0.0 0.0 0.0 mag 0.0 
0.8247870000 0.5039200000 0.0258920000 1 1 1 v 0.0 0.0 0.0 mag 0.0 
0.9584320000 0.5018520000 0.0941150000 1 1 1 v 0.0 0.0 0.0 mag 0.0 
0.0244840000 0.4968890000 0.2270830000 1 1 1 v 0.0 0.0 0.0 mag 0.0 
0.1576760000 0.4941540000 0.2946110000 1 1 1 v 0.0 0.0 0.0 mag 0.0 
0.2258880000 0.4978120000 0.2298210000 1 1 1 v 0.0 0.0 0.0 mag 0.0 
0.3601900000 0.5012380000 0.2994910000 1 1 1 v 0.0 0.0 0.0 mag 0.0 
0.4279310000 0.5063120000 0.2327190000 1 1 1 v 0.0 0.0 0.0 mag 0.0 
0.5620600000 0.5096970000 0.2997140000 1 1 1 v 0.0 0.0 0.0 mag 0.0 
0.6275670000 0.5053170000 0.2306090000 1 1 1 v 0.0 0.0 0.0 mag 0.0 
0.7604750000 0.5023880000 0.2952780000 1 1 1 v 0.0 0.0 0.0 mag 0.0 
0.8259210000 0.4999990000 0.2273940000 1 1 1 v 0.0 0.0 0.0 mag 0.0 
0.9587170000 0.4964750000 0.2944140000 1 1 1 v 0.0 0.0 0.0 mag 0.0 
0.0256510000 0.4942500000 0.4283450000 1 1 1 v 0.0 0.0 0.0 mag 0.0 
0.1578120000 0.4906160000 0.4956760000 1 1 1 v 0.0 0.0 0.0 mag 0.0 
0.2222890000 0.4897930000 0.4277920000 1 1 1 v 0.0 0.0 0.0 mag 0.0 
0.3542140000 0.4902440000 0.4941870000 1 1 1 v 0.0 0.0 0.0 mag 0.0 
0.4204700000 0.4996690000 0.4312110000 1 1 1 v 0.0 0.0 0.0 mag 0.0 
0.6351620000 0.5162950000 0.4312580000 1 1 1 v 0.0 0.0 0.0 mag 0.0 
0.7647650000 0.5094960000 0.4959360000 1 1 1 v 0.0 0.0 0.0 mag 0.0 
0.8289030000 0.5019170000 0.4285080000 1 1 1 v 0.0 0.0 0.0 mag 0.0 
0.9609590000 0.4974260000 0.4960170000 1 1 1 v 0.0 0.0 0.0 mag 0.0 
0.0280910000 0.4980290000 0.6299680000 1 1 1 v 0.0 0.0 0.0 mag 0.0 
0.1605550000 0.4954470000 0.6973200000 1 1 1 v 0.0 0.0 0.0 mag 0.0 
0.2252320000 0.4914370000 0.6296870000 1 1 1 v 0.0 0.0 0.0 mag 0.0 
0.3580220000 0.4911580000 0.6972380000 1 1 1 v 0.0 0.0 0.0 mag 0.0 
0.4233400000 0.4903210000 0.6302770000 1 1 1 v 0.0 0.0 0.0 mag 0.0 
0.5538460000 0.4976740000 0.6923500000 1 1 1 v 0.0 0.0 0.0 mag 0.0 
0.7670670000 0.5215550000 0.6953390000 1 1 1 v 0.0 0.0 0.0 mag 0.0 
0.8322470000 0.5112810000 0.6310300000 1 1 1 v 0.0 0.0 0.0 mag 0.0 
0.9636770000 0.5035700000 0.6976920000 1 1 1 v 0.0 0.0 0.0 mag 0.0 
0.0286410000 0.5044020000 0.8306460000 1 1 1 v 0.0 0.0 0.0 mag 0.0 
0.1617710000 0.5013870000 0.8981990000 1 1 1 v 0.0 0.0 0.0 mag 0.0 
0.2276420000 0.4980690000 0.8309440000 1 1 1 v 0.0 0.0 0.0 mag 0.0 
0.3605770000 0.4982240000 0.8981010000 1 1 1 v 0.0 0.0 0.0 mag 0.0 
0.4262390000 0.4956980000 0.8302730000 1 1 1 v 0.0 0.0 0.0 mag 0.0 
0.5592010000 0.4991270000 0.8947530000 1 1 1 v 0.0 0.0 0.0 mag 0.0 
0.6241940000 0.5016020000 0.8247440000 1 1 1 v 0.0 0.0 0.0 mag 0.0 
0.7583070000 0.5076080000 0.8926810000 1 1 1 v 0.0 0.0 0.0 mag 0.0 
0.8259710000 0.5129750000 0.8262560000 1 1 1 v 0.0 0.0 0.0 mag 0.0 
0.9602180000 0.5072200000 0.8952990000 1 1 1 v 0.0 0.0 0.0 mag 0.0 
0.6291540000 0.6571050000 0.5942600000 1 1 1 v 0.0 0.0 0.0 mag 0.0 
0.7652150000 0.6764310000 0.6756730000 1 1 1 v 0.0 0.0 0.0 mag 0.0 
0.7718820000 0.7514730000 0.7061960000 1 1 1 v 0.0 0.0 0.0 mag 0.0 
0.6924350000 0.7682540000 0.7663410000 1 1 1 v 0.0 0.0 0.0 mag 0.0 
0.5561810000 0.7457370000 0.6852720000 1 1 1 v 0.0 0.0 0.0 mag 0.0 
0.5495870000 0.6706450000 0.6544850000 1 1 1 v 0.0 0.0 0.0 mag 0.0 

Pt
0.0000000000
1
0.5860620000 0.5434930000 0.5601600000 1 1 1 v 0.0 0.0 0.0 mag 0.0 

H
0.0000000000
12
0.5029500000 0.7552240000 0.7333650000 1 1 1 v 0.0 0.0 0.0 mag 0.0 
0.5911670000 0.6876700000 0.5083580000 1 1 1 v 0.0 0.0 0.0 mag 0.0 
0.8185640000 0.6653590000 0.6283210000 1 1 1 v 0.0 0.0 0.0 mag 0.0 
0.8082880000 0.6475170000 0.7631630000 1 1 1 v 0.0 0.0 0.0 mag 0.0 
0.8700410000 0.7658460000 0.7689520000 1 1 1 v 0.0 0.0 0.0 mag 0.0 
0.7387920000 0.7806710000 0.6195530000 1 1 1 v 0.0 0.0 0.0 mag 0.0 
0.6960850000 0.8221940000 0.7847810000 1 1 1 v 0.0 0.0 0.0 mag 0.0 
0.7328930000 0.7431830000 0.8581130000 1 1 1 v 0.0 0.0 0.0 mag 0.0 
0.5104280000 0.7745730000 0.5973230000 1 1 1 v 0.0 0.0 0.0 mag 0.0 
0.4515220000 0.6556320000 0.5929150000 1 1 1 v 0.0 0.0 0.0 mag 0.0 
0.5855540000 0.6417580000 0.7418960000 1 1 1 v 0.0 0.0 0.0 mag 0.0 
0.5726000000 0.6063570000 0.4732980000 1 1 1 v 0.0 0.0 0.0 mag 0.0 

