ATOMIC_SPECIES
Cu  63.546        Cu_ONCV_PBE-1.0.upf
N   14.007        N_ONCV_PBE-1.0.upf

NUMERICAL_ORBITAL
Cu_gga_8au_100Ry_4s2p2d1f.orb
N_gga_7au_100Ry_2s2p1d.orb

LATTICE_CONSTANT
1.8897261258369282 

LATTICE_VECTORS
10.210600000      0.0000000000      0.0000000000      
0.0000000000      30.252700000      0.0000000000      
5.1053100000      0.0000000000      8.8426600000      

ATOMIC_POSITIONS
Direct

Cu
0.0000000000
64
0.0500000000 0.3966590000 0.0500000000 0 0 0 v 0.0 0.0 0.0 mag 0.0 
0.3000000000 0.3966590000 0.0500000000 0 0 0 v 0.0 0.0 0.0 mag 0.0 
0.5500000000 0.3966590000 0.0500000000 0 0 0 v 0.0 0.0 0.0 mag 0.0 
0.8000000000 0.3966590000 0.0500000000 0 0 0 v 0.0 0.0 0.0 mag 0.0 
0.0500000000 0.3966590000 0.3000000000 0 0 0 v 0.0 0.0 0.0 mag 0.0 
0.3000000000 0.3966590000 0.3000000000 0 0 0 v 0.0 0.0 0.0 mag 0.0 
0.5500000000 0.3966590000 0.3000000000 0 0 0 v 0.0 0.0 0.0 mag 0.0 
0.8000000000 0.3966590000 0.3000000000 0 0 0 v 0.0 0.0 0.0 mag 0.0 
0.0500000000 0.3966590000 0.5500000000 0 0 0 v 0.0 0.0 0.0 mag 0.0 
0.3000000000 0.3966590000 0.5500000000 0 0 0 v 0.0 0.0 0.0 mag 0.0 
0.5500000000 0.3966590000 0.5500000000 0 0 0 v 0.0 0.0 0.0 mag 0.0 
0.8000000000 0.3966590000 0.5500000000 0 0 0 v 0.0 0.0 0.0 mag 0.0 
0.0500000000 0.3966590000 0.8000000000 0 0 0 v 0.0 0.0 0.0 mag 0.0 
0.3000000000 0.3966590000 0.8000000000 0 0 0 v 0.0 0.0 0.0 mag 0.0 
0.5500000000 0.3966590000 0.8000000000 0 0 0 v 0.0 0.0 0.0 mag 0.0 
0.8000000000 0.3966590000 0.8000000000 0 0 0 v 0.0 0.0 0.0 mag 0.0 
0.1333330000 0.4655530000 0.1333330000 0 0 0 v 0.0 0.0 0.0 mag 0.0 
0.3833330000 0.4655530000 0.1333330000 0 0 0 v 0.0 0.0 0.0 mag 0.0 
0.6333330000 0.4655530000 0.1333330000 0 0 0 v 0.0 0.0 0.0 mag 0.0 
0.8833330000 0.4655530000 0.1333330000 0 0 0 v 0.0 0.0 0.0 mag 0.0 
0.1333330000 0.4655530000 0.3833330000 0 0 0 v 0.0 0.0 0.0 mag 0.0 
0.3833330000 0.4655530000 0.3833330000 0 0 0 v 0.0 0.0 0.0 mag 0.0 
0.6333330000 0.4655530000 0.3833330000 0 0 0 v 0.0 0.0 0.0 mag 0.0 
0.8833330000 0.4655530000 0.3833330000 0 0 0 v 0.0 0.0 0.0 mag 0.0 
0.1333330000 0.4655530000 0.6333330000 0 0 0 v 0.0 0.0 0.0 mag 0.0 
0.3833330000 0.4655530000 0.6333330000 0 0 0 v 0.0 0.0 0.0 mag 0.0 
0.6333330000 0.4655530000 0.6333330000 0 0 0 v 0.0 0.0 0.0 mag 0.0 
0.8833330000 0.4655530000 0.6333330000 0 0 0 v 0.0 0.0 0.0 mag 0.0 
0.1333330000 0.4655530000 0.8833330000 0 0 0 v 0.0 0.0 0.0 mag 0.0 
0.3833330000 0.4655530000 0.8833330000 0 0 0 v 0.0 0.0 0.0 mag 0.0 
0.6333330000 0.4655530000 0.8833330000 0 0 0 v 0.0 0.0 0.0 mag 0.0 
0.8833330000 0.4655530000 0.8833330000 0 0 0 v 0.0 0.0 0.0 mag 0.0 
0.9657280000 0.5325610000 0.2179080000 1 1 1 v 0.0 0.0 0.0 mag 0.0 
0.2191820000 0.5319090000 0.2162060000 1 1 1 v 0.0 0.0 0.0 mag 0.0 
0.4646360000 0.5319150000 0.2200870000 1 1 1 v 0.0 0.0 0.0 mag 0.0 
0.7139480000 0.5319060000 0.2162130000 1 1 1 v 0.0 0.0 0.0 mag 0.0 
0.9696670000 0.5321740000 0.4647610000 1 1 1 v 0.0 0.0 0.0 mag 0.0 
0.2134500000 0.5334010000 0.4698180000 1 1 1 v 0.0 0.0 0.0 mag 0.0 
0.4660420000 0.5334140000 0.4698600000 1 1 1 v 0.0 0.0 0.0 mag 0.0 
0.7149120000 0.5321540000 0.4647580000 1 1 1 v 0.0 0.0 0.0 mag 0.0 
0.9651340000 0.5336200000 0.7165000000 1 1 1 v 0.0 0.0 0.0 mag 0.0 
0.2158700000 0.5325490000 0.7176100000 1 1 1 v 0.0 0.0 0.0 mag 0.0 
0.4677110000 0.5336210000 0.7165280000 1 1 1 v 0.0 0.0 0.0 mag 0.0 
0.7173330000 0.5332570000 0.7147350000 1 1 1 v 0.0 0.0 0.0 mag 0.0 
0.9657660000 0.5324960000 0.9671710000 1 1 1 v 0.0 0.0 0.0 mag 0.0 
0.2164530000 0.5324970000 0.9671740000 1 1 1 v 0.0 0.0 0.0 mag 0.0 
0.4680560000 0.5327970000 0.9652020000 1 1 1 v 0.0 0.0 0.0 mag 0.0 
0.7161080000 0.5328000000 0.9652010000 1 1 1 v 0.0 0.0 0.0 mag 0.0 
0.0506010000 0.6002420000 0.0476980000 1 1 1 v 0.0 0.0 0.0 mag 0.0 
0.2993860000 0.5993460000 0.0514500000 1 1 1 v 0.0 0.0 0.0 mag 0.0 
0.5446030000 0.5990950000 0.0596890000 1 1 1 v 0.0 0.0 0.0 mag 0.0 
0.7980980000 0.5993450000 0.0514190000 1 1 1 v 0.0 0.0 0.0 mag 0.0 
0.0584920000 0.5991030000 0.2896790000 1 1 1 v 0.0 0.0 0.0 mag 0.0 
0.2976820000 0.5998950000 0.3038670000 1 1 1 v 0.0 0.0 0.0 mag 0.0 
0.5473050000 0.5998930000 0.3038570000 1 1 1 v 0.0 0.0 0.0 mag 0.0 
0.8007240000 0.5990940000 0.2896710000 1 1 1 v 0.0 0.0 0.0 mag 0.0 
0.0451570000 0.6048130000 0.5507750000 1 1 1 v 0.0 0.0 0.0 mag 0.0 
0.2984720000 0.6002150000 0.5518600000 1 1 1 v 0.0 0.0 0.0 mag 0.0 
0.5529080000 0.6048000000 0.5507450000 1 1 1 v 0.0 0.0 0.0 mag 0.0 
0.8132490000 0.5983580000 0.5223790000 1 1 1 v 0.0 0.0 0.0 mag 0.0 
0.0503920000 0.5998430000 0.8010140000 1 1 1 v 0.0 0.0 0.0 mag 0.0 
0.2974590000 0.5998410000 0.8010010000 1 1 1 v 0.0 0.0 0.0 mag 0.0 
0.5433370000 0.6026180000 0.8128240000 1 1 1 v 0.0 0.0 0.0 mag 0.0 
0.7926850000 0.6026240000 0.8128010000 1 1 1 v 0.0 0.0 0.0 mag 0.0 

N
0.0000000000
2
0.6538480000 0.6383430000 0.6432290000 1 1 1 v 0.0 0.0 0.0 mag 0.0 
0.8516290000 0.6383580000 0.6432310000 1 1 1 v 0.0 0.0 0.0 mag 0.0 

