ATOMIC_SPECIES
H 1.008 H_ONCV_PBE-1.0.upf upf201
Au 196.967 Au_ONCV_PBE-1.0.upf upf201

NUMERICAL_ORBITAL
H_gga_6au_100Ry_2s1p.orb
Au_gga_7au_100Ry_4s2p2d1f.orb

LATTICE_CONSTANT
1.889726

LATTICE_VECTORS
   11.5351970472     0.0000000000     0.0000000000 #latvec1
    0.0000000000    19.0637951168     0.0000000000 #latvec2
   -5.7675985217     0.0000000000     9.9897736794 #latvec3

ATOMIC_POSITIONS
Direct

H #label
0 #magnetism
2 #number of atoms
    0.6283599560     0.5168383520     0.7133348369 m  1  1  1
    0.3685241425     0.5166851629     0.4536514366 m  1  1  1

Au #label
0 #magnetism
64 #number of atoms
    0.0400000000     0.1000000000     0.0400000000 m  0  0  0
    0.2900000000     0.1000000000     0.0400000000 m  0  0  0
    0.5400000000     0.1000000000     0.0400000000 m  0  0  0
    0.7900000000     0.1000000000     0.0400000000 m  0  0  0
    0.0400000000     0.1000000000     0.2900000000 m  0  0  0
    0.2900000000     0.1000000000     0.2900000000 m  0  0  0
    0.5400000000     0.1000000000     0.2900000000 m  0  0  0
    0.7900000000     0.1000000000     0.2900000000 m  0  0  0
    0.0400000000     0.1000000000     0.5400000000 m  0  0  0
    0.2900000000     0.1000000000     0.5400000000 m  0  0  0
    0.5400000000     0.1000000000     0.5400000000 m  0  0  0
    0.7900000000     0.1000000000     0.5400000000 m  0  0  0
    0.0400000000     0.1000000000     0.7900000000 m  0  0  0
    0.2900000000     0.1000000000     0.7900000000 m  0  0  0
    0.5400000000     0.1000000000     0.7900000000 m  0  0  0
    0.7900000000     0.1000000000     0.7900000000 m  0  0  0
    0.1233330000     0.2235120000     0.2066670000 m  0  0  0
    0.3733330000     0.2235120000     0.2066670000 m  0  0  0
    0.6233330000     0.2235120000     0.2066670000 m  0  0  0
    0.8733330000     0.2235120000     0.2066670000 m  0  0  0
    0.1233330000     0.2235120000     0.4566670000 m  0  0  0
    0.3733330000     0.2235120000     0.4566670000 m  0  0  0
    0.6233330000     0.2235120000     0.4566670000 m  0  0  0
    0.8733330000     0.2235120000     0.4566670000 m  0  0  0
    0.1233330000     0.2235120000     0.7066670000 m  0  0  0
    0.3733330000     0.2235120000     0.7066670000 m  0  0  0
    0.6233330000     0.2235120000     0.7066670000 m  0  0  0
    0.8733330000     0.2235120000     0.7066670000 m  0  0  0
    0.1233330000     0.2235120000     0.9566670000 m  0  0  0
    0.3733330000     0.2235120000     0.9566670000 m  0  0  0
    0.6233330000     0.2235120000     0.9566670000 m  0  0  0
    0.8733330000     0.2235120000     0.9566670000 m  0  0  0
    0.2090342035     0.3471752021     0.1260573188 m  1  1  1
    0.4552029498     0.3461719019     0.1222809952 m  1  1  1
    0.7061600638     0.3470135872     0.1234870019 m  1  1  1
    0.9572095399     0.3468939913     0.1227356336 m  1  1  1
    0.2065222542     0.3473081786     0.3728561758 m  1  1  1
    0.4576194100     0.3480764097     0.3763565807 m  1  1  1
    0.7072050337     0.3468606818     0.3728269302 m  1  1  1
    0.9564795828     0.3470251600     0.3738058176 m  1  1  1
    0.2073979160     0.3476498887     0.6224919363 m  1  1  1
    0.4568848357     0.3481905765     0.6232427846 m  1  1  1
    0.7040560514     0.3480794716     0.6226614840 m  1  1  1
    0.9578592644     0.3461857613     0.6248601717 m  1  1  1
    0.2064088015     0.3458273917     0.8737511748 m  1  1  1
    0.4575656763     0.3476672208     0.8725859738 m  1  1  1
    0.7071845464     0.3472788108     0.8734241436 m  1  1  1
    0.9544401626     0.3472197081     0.8713667889 m  1  1  1
    0.0415265112     0.4732690913     0.0398337495 m  1  1  1
    0.2898106972     0.4735064599     0.0392365471 m  1  1  1
    0.5389643660     0.4740022215     0.0412291847 m  1  1  1
    0.7913840050     0.4726059092     0.0422795067 m  1  1  1
    0.0379928269     0.4726882627     0.2889156266 m  1  1  1
    0.2863880513     0.4775006147     0.2829213792 m  1  1  1
    0.5409031354     0.4718609654     0.2880061913 m  1  1  1
    0.7900123218     0.4747714055     0.2899724796 m  1  1  1
    0.0391160992     0.4739830256     0.5410408948 m  1  1  1
    0.2848654955     0.4754655854     0.5422454449 m  1  1  1
    0.5451039866     0.4804973547     0.5365969196 m  1  1  1
    0.7927585769     0.4718058936     0.5394785531 m  1  1  1
    0.0415851536     0.4734508488     0.7906491256 m  1  1  1
    0.2889772573     0.4734052207     0.7914260074 m  1  1  1
    0.5384608715     0.4754621273     0.7956804237 m  1  1  1
    0.7985321676     0.4774606980     0.7946839234 m  1  1  1
