ATOMIC_SPECIES
Cu 63.546 Cu_ONCV_PBE-1.0.upf upf201
N 14.007 N_ONCV_PBE-1.0.upf upf201

NUMERICAL_ORBITAL
Cu_gga_8au_100Ry_4s2p2d1f.orb
N_gga_7au_100Ry_2s2p1d.orb

LATTICE_CONSTANT
1.889726

LATTICE_VECTORS
   10.2106205815     0.0000000000     0.0000000000 #latvec1
    0.0000000000    30.2526987600     0.0000000000 #latvec2
    5.1053097907     0.0000000000     8.8426566375 #latvec3

ATOMIC_POSITIONS
Direct

Cu #label
0 #magnetism
64 #number of atoms
    0.0500000000     0.3966590000     0.0500000000 m  0  0  0
    0.3000000000     0.3966590000     0.0500000000 m  0  0  0
    0.5500000000     0.3966590000     0.0500000000 m  0  0  0
    0.8000000000     0.3966590000     0.0500000000 m  0  0  0
    0.0500000000     0.3966590000     0.3000000000 m  0  0  0
    0.3000000000     0.3966590000     0.3000000000 m  0  0  0
    0.5500000000     0.3966590000     0.3000000000 m  0  0  0
    0.8000000000     0.3966590000     0.3000000000 m  0  0  0
    0.0500000000     0.3966590000     0.5500000000 m  0  0  0
    0.3000000000     0.3966590000     0.5500000000 m  0  0  0
    0.5500000000     0.3966590000     0.5500000000 m  0  0  0
    0.8000000000     0.3966590000     0.5500000000 m  0  0  0
    0.0500000000     0.3966590000     0.8000000000 m  0  0  0
    0.3000000000     0.3966590000     0.8000000000 m  0  0  0
    0.5500000000     0.3966590000     0.8000000000 m  0  0  0
    0.8000000000     0.3966590000     0.8000000000 m  0  0  0
    0.1333330000     0.4655530000     0.1333330000 m  0  0  0
    0.3833330000     0.4655530000     0.1333330000 m  0  0  0
    0.6333330000     0.4655530000     0.1333330000 m  0  0  0
    0.8833330000     0.4655530000     0.1333330000 m  0  0  0
    0.1333330000     0.4655530000     0.3833330000 m  0  0  0
    0.3833330000     0.4655530000     0.3833330000 m  0  0  0
    0.6333330000     0.4655530000     0.3833330000 m  0  0  0
    0.8833330000     0.4655530000     0.3833330000 m  0  0  0
    0.1333330000     0.4655530000     0.6333330000 m  0  0  0
    0.3833330000     0.4655530000     0.6333330000 m  0  0  0
    0.6333330000     0.4655530000     0.6333330000 m  0  0  0
    0.8833330000     0.4655530000     0.6333330000 m  0  0  0
    0.1333330000     0.4655530000     0.8833330000 m  0  0  0
    0.3833330000     0.4655530000     0.8833330000 m  0  0  0
    0.6333330000     0.4655530000     0.8833330000 m  0  0  0
    0.8833330000     0.4655530000     0.8833330000 m  0  0  0
    0.9664990000     0.5321870000     0.2160860000 m  1  1  1
    0.2156650000     0.5321400000     0.2169670000 m  1  1  1
    0.4663710000     0.5313100000     0.2163440000 m  1  1  1
    0.7164540000     0.5321420000     0.2169380000 m  1  1  1
    0.9634580000     0.5337550000     0.4678490000 m  1  1  1
    0.2164740000     0.5319650000     0.4652440000 m  1  1  1
    0.4673590000     0.5319640000     0.4651910000 m  1  1  1
    0.7177680000     0.5337820000     0.4677930000 m  1  1  1
    0.9656470000     0.5330910000     0.7157280000 m  1  1  1
    0.2166490000     0.5327710000     0.7158640000 m  1  1  1
    0.4677680000     0.5330920000     0.7156610000 m  1  1  1
    0.7167400000     0.5344330000     0.7155730000 m  1  1  1
    0.9671700000     0.5324940000     0.9648990000 m  1  1  1
    0.2171330000     0.5324980000     0.9648810000 m  1  1  1
    0.4671160000     0.5326120000     0.9651450000 m  1  1  1
    0.7168680000     0.5326160000     0.9651350000 m  1  1  1
    0.0507520000     0.5998770000     0.0471220000 m  1  1  1
    0.2964830000     0.5993480000     0.0522360000 m  1  1  1
    0.5477150000     0.5988570000     0.0531290000 m  1  1  1
    0.7999240000     0.5993430000     0.0521020000 m  1  1  1
    0.0508720000     0.5993580000     0.2944770000 m  1  1  1
    0.3033460000     0.5988950000     0.2950450000 m  1  1  1
    0.5501500000     0.5989000000     0.2949810000 m  1  1  1
    0.8032190000     0.5993740000     0.2942980000 m  1  1  1
    0.0637160000     0.6007340000     0.5375400000 m  1  1  1
    0.3014840000     0.5990420000     0.5455470000 m  1  1  1
    0.5471990000     0.6007540000     0.5374080000 m  1  1  1
    0.8005430000     0.6112840000     0.5469030000 m  1  1  1
    0.0517500000     0.6004690000     0.7982960000 m  1  1  1
    0.2985730000     0.6004890000     0.7982390000 m  1  1  1
    0.5406350000     0.6024510000     0.8132540000 m  1  1  1
    0.7947480000     0.6024990000     0.8129350000 m  1  1  1

N #label
0 #magnetism
2 #number of atoms
    0.6039680000     0.6367570000     0.6428340000 m  1  1  1
    0.9013490000     0.6367100000     0.6425650000 m  1  1  1
