ATOMIC_SPECIES
H   1.008         H_ONCV_PBE-1.0.upf
Au  196.966569    Au_ONCV_PBE-1.0.upf

NUMERICAL_ORBITAL
H_gga_6au_100Ry_2s1p.orb
Au_gga_7au_100Ry_4s2p2d1f.orb

LATTICE_CONSTANT
1.8897261258369282 

LATTICE_VECTORS
11.535200000      0.0000000000      0.0000000000      
0.0000000000      19.063800000      0.0000000000      
-5.767600000      0.0000000000      9.9897700000      

ATOMIC_POSITIONS
Direct

H
0.0000000000
2
0.5019670000 0.5603360000 0.6481480000 1 1 1 v 0.0 0.0 0.0 mag 0.0 
0.4342240000 0.5602520000 0.5797940000 1 1 1 v 0.0 0.0 0.0 mag 0.0 

Au
0.0000000000
64
0.0400000000 0.1000000000 0.0400000000 0 0 0 v 0.0 0.0 0.0 mag 0.0 
0.2900000000 0.1000000000 0.0400000000 0 0 0 v 0.0 0.0 0.0 mag 0.0 
0.5400000000 0.1000000000 0.0400000000 0 0 0 v 0.0 0.0 0.0 mag 0.0 
0.7900000000 0.1000000000 0.0400000000 0 0 0 v 0.0 0.0 0.0 mag 0.0 
0.0400000000 0.1000000000 0.2900000000 0 0 0 v 0.0 0.0 0.0 mag 0.0 
0.2900000000 0.1000000000 0.2900000000 0 0 0 v 0.0 0.0 0.0 mag 0.0 
0.5400000000 0.1000000000 0.2900000000 0 0 0 v 0.0 0.0 0.0 mag 0.0 
0.7900000000 0.1000000000 0.2900000000 0 0 0 v 0.0 0.0 0.0 mag 0.0 
0.0400000000 0.1000000000 0.5400000000 0 0 0 v 0.0 0.0 0.0 mag 0.0 
0.2900000000 0.1000000000 0.5400000000 0 0 0 v 0.0 0.0 0.0 mag 0.0 
0.5400000000 0.1000000000 0.5400000000 0 0 0 v 0.0 0.0 0.0 mag 0.0 
0.7900000000 0.1000000000 0.5400000000 0 0 0 v 0.0 0.0 0.0 mag 0.0 
0.0400000000 0.1000000000 0.7900000000 0 0 0 v 0.0 0.0 0.0 mag 0.0 
0.2900000000 0.1000000000 0.7900000000 0 0 0 v 0.0 0.0 0.0 mag 0.0 
0.5400000000 0.1000000000 0.7900000000 0 0 0 v 0.0 0.0 0.0 mag 0.0 
0.7900000000 0.1000000000 0.7900000000 0 0 0 v 0.0 0.0 0.0 mag 0.0 
0.1233330000 0.2235120000 0.2066670000 0 0 0 v 0.0 0.0 0.0 mag 0.0 
0.3733330000 0.2235120000 0.2066670000 0 0 0 v 0.0 0.0 0.0 mag 0.0 
0.6233330000 0.2235120000 0.2066670000 0 0 0 v 0.0 0.0 0.0 mag 0.0 
0.8733330000 0.2235120000 0.2066670000 0 0 0 v 0.0 0.0 0.0 mag 0.0 
0.1233330000 0.2235120000 0.4566670000 0 0 0 v 0.0 0.0 0.0 mag 0.0 
0.3733330000 0.2235120000 0.4566670000 0 0 0 v 0.0 0.0 0.0 mag 0.0 
0.6233330000 0.2235120000 0.4566670000 0 0 0 v 0.0 0.0 0.0 mag 0.0 
0.8733330000 0.2235120000 0.4566670000 0 0 0 v 0.0 0.0 0.0 mag 0.0 
0.1233330000 0.2235120000 0.7066670000 0 0 0 v 0.0 0.0 0.0 mag 0.0 
0.3733330000 0.2235120000 0.7066670000 0 0 0 v 0.0 0.0 0.0 mag 0.0 
0.6233330000 0.2235120000 0.7066670000 0 0 0 v 0.0 0.0 0.0 mag 0.0 
0.8733330000 0.2235120000 0.7066670000 0 0 0 v 0.0 0.0 0.0 mag 0.0 
0.1233330000 0.2235120000 0.9566670000 0 0 0 v 0.0 0.0 0.0 mag 0.0 
0.3733330000 0.2235120000 0.9566670000 0 0 0 v 0.0 0.0 0.0 mag 0.0 
0.6233330000 0.2235120000 0.9566670000 0 0 0 v 0.0 0.0 0.0 mag 0.0 
0.8733330000 0.2235120000 0.9566670000 0 0 0 v 0.0 0.0 0.0 mag 0.0 
0.2063860000 0.3468960000 0.1213440000 1 1 1 v 0.0 0.0 0.0 mag 0.0 
0.4578590000 0.3471440000 0.1237570000 1 1 1 v 0.0 0.0 0.0 mag 0.0 
0.7067170000 0.3474220000 0.1235870000 1 1 1 v 0.0 0.0 0.0 mag 0.0 
0.9563680000 0.3474230000 0.1237830000 1 1 1 v 0.0 0.0 0.0 mag 0.0 
0.2055250000 0.3464140000 0.3704340000 1 1 1 v 0.0 0.0 0.0 mag 0.0 
0.4551020000 0.3469310000 0.3721480000 1 1 1 v 0.0 0.0 0.0 mag 0.0 
0.7063240000 0.3471450000 0.3737760000 1 1 1 v 0.0 0.0 0.0 mag 0.0 
0.9565470000 0.3474120000 0.3734070000 1 1 1 v 0.0 0.0 0.0 mag 0.0 
0.2066600000 0.3465350000 0.6240900000 1 1 1 v 0.0 0.0 0.0 mag 0.0 
0.4566530000 0.3472580000 0.6235020000 1 1 1 v 0.0 0.0 0.0 mag 0.0 
0.7079440000 0.3469610000 0.6249930000 1 1 1 v 0.0 0.0 0.0 mag 0.0 
0.9563670000 0.3471460000 0.6222600000 1 1 1 v 0.0 0.0 0.0 mag 0.0 
0.2067430000 0.3470500000 0.8733960000 1 1 1 v 0.0 0.0 0.0 mag 0.0 
0.4560430000 0.3465310000 0.8735000000 1 1 1 v 0.0 0.0 0.0 mag 0.0 
0.7096870000 0.3464150000 0.8746090000 1 1 1 v 0.0 0.0 0.0 mag 0.0 
0.9587840000 0.3468750000 0.8737560000 1 1 1 v 0.0 0.0 0.0 mag 0.0 
0.0412820000 0.4751420000 0.0389810000 1 1 1 v 0.0 0.0 0.0 mag 0.0 
0.2900750000 0.4748350000 0.0385240000 1 1 1 v 0.0 0.0 0.0 mag 0.0 
0.5403770000 0.4752260000 0.0429590000 1 1 1 v 0.0 0.0 0.0 mag 0.0 
0.7935060000 0.4756910000 0.0430450000 1 1 1 v 0.0 0.0 0.0 mag 0.0 
0.0372440000 0.4757020000 0.2868150000 1 1 1 v 0.0 0.0 0.0 mag 0.0 
0.2883840000 0.4739640000 0.2873950000 1 1 1 v 0.0 0.0 0.0 mag 0.0 
0.5393420000 0.4751370000 0.2881200000 1 1 1 v 0.0 0.0 0.0 mag 0.0 
0.7896700000 0.4743180000 0.2905940000 1 1 1 v 0.0 0.0 0.0 mag 0.0 
0.0373430000 0.4751980000 0.5398560000 1 1 1 v 0.0 0.0 0.0 mag 0.0 
0.2791000000 0.4690670000 0.5333220000 1 1 1 v 0.0 0.0 0.0 mag 0.0 
0.5443020000 0.4694290000 0.5356420000 1 1 1 v 0.0 0.0 0.0 mag 0.0 
0.7920840000 0.4751270000 0.5408980000 1 1 1 v 0.0 0.0 0.0 mag 0.0 
0.0416920000 0.4748210000 0.7901220000 1 1 1 v 0.0 0.0 0.0 mag 0.0 
0.2912570000 0.4741090000 0.7889580000 1 1 1 v 0.0 0.0 0.0 mag 0.0 
0.5469290000 0.4690420000 0.8012960000 1 1 1 v 0.0 0.0 0.0 mag 0.0 
0.7928170000 0.4738980000 0.7918230000 1 1 1 v 0.0 0.0 0.0 mag 0.0 

