INPUT_PARAMETERS RUNNING ABACUS-DFT

#Parameters (1.General)
suffix                  ABACUS  # suffix of OUTPUT DIR
#ntype                   4   #  number of element
nspin                   2   #  1/2/4 4 for SOC
symmetry                1   #  0/1  1 for open, default
# symmetry_autoclose      1   # if symmetry error: set symmetry to 0
# symmetry_prec           1e-5  # default
esolver_type            ksdft  # ksdft, ofdft, sdft, tddft, lj, dp
# dft_functional          pbe  # same as upf file, can be lda/pbe/scan/hf/pbe0/hse
ks_solver             genelpa  # default for ksdft-lcao
vdw_method              d3_bj
pseudo_dir              /lustre/home/2201110432/example/abacus/PP
orbital_dir             /lustre/home/2201110432/example/abacus/ORB

#Parameters (2.Iteration)
calculation             relax # scf relax cell-relax md
ecutwfc                 100
scf_thr                 1e-6
scf_nmax                300
relax_nmax              50
relax_method            bfgs  # cg, bfgs, cg_bfgs, sd, "fire"
force_thr_ev            0.05  # ev
# stress_thr            5

#Parameters (3.Basis)
basis_type              lcao  # lcao or pw
# kspacing              0.25 # replace KPT
# gamma_only            1  # 0/1, replace KPT

#Parameters (4.Smearing)
smearing_method         gau    # mp/gaussian/fixed
smearing_sigma          0.001  # Rydberg

#Parameters (5.Mixing)
mixing_type             broyden  # pulay/broyden
#mixing_beta             0.2  # for metal: 0.05-0.4
#mixing_gg0              1.5  # only for metal
#mixing_ndim            8    # mixing dimension, for low-d can set to 20


#Parameters (6.Calculation)
cal_force          1
cal_stress         1
out_stru           1  # print STRU in OUT
out_chg            0  # print CHG or not
out_bandgap        1
out_mul            1  # print Mulliken charge and mag of atom in mulliken.txt
# out_interval       1
# restart_save     auto  # false, auto, other
# restart_load     false

#Parameters (7. Dipole Correction)
efield_flag        1   # open added potential, if 0, all below useless
dip_cor_flag       1   # open dipole correction
efield_dir         1   # direction of dipole correction, 0,1,2 for x,y,z
efield_pos_max     0.7 # max frac-pos of correction , default 0.5
efield_pos_dec     0.1 # where the saw-like potential decreases, default 0.1
efield_amp         0.0 # Amplitude of outer electric field , 0 for only dipole-corr
