ATOMIC_SPECIES
C   12.011  C_ONCV_PBE-1.0.upf
O   15.999  O_ONCV_PBE-1.0.upf
Pt  195.085  Pt_ONCV_PBE-1.0.upf

NUMERICAL_ORBITAL
C_gga_7au_100Ry_2s2p1d.orb
O_gga_7au_100Ry_2s2p1d.orb
Pt_gga_7au_100Ry_4s2p2d1f.orb

LATTICE_CONSTANT
1.889726

LATTICE_VECTORS
11.18739901983  0.000000000000  0.000000000000
0.000000000000  18.85089822731  0.000000000000
-5.59369953152  0.000000000000  9.688571188571

ATOMIC_POSITIONS
Direct

C 
0.000
1
0.629088000000  0.433692000000  0.687213000000  1  1  1  mag  0.0

O 
0.000
1
0.631094000000  0.497067000000  0.686899000000  1  1  1  mag  0.0

Pt
0.000
64
0.044552000000  0.000000000000  0.022276000000  0  0  0  mag  0.0
0.294552000000  0.000000000000  0.022276000000  0  0  0  mag  0.0
0.544552000000  0.000000000000  0.022276000000  0  0  0  mag  0.0
0.794552000000  0.000000000000  0.022276000000  0  0  0  mag  0.0
0.044552000000  0.000000000000  0.272276000000  0  0  0  mag  0.0
0.294552000000  0.000000000000  0.272276000000  0  0  0  mag  0.0
0.544552000000  0.000000000000  0.272276000000  0  0  0  mag  0.0
0.794552000000  0.000000000000  0.272276000000  0  0  0  mag  0.0
0.294552000000  0.000000000000  0.522276000000  0  0  0  mag  0.0
0.544552000000  0.000000000000  0.522276000000  0  0  0  mag  0.0
0.794552000000  0.000000000000  0.522276000000  0  0  0  mag  0.0
0.044552000000  0.000000000000  0.522276000000  0  0  0  mag  0.0
0.044552000000  0.000000000000  0.772276000000  0  0  0  mag  0.0
0.294552000000  0.000000000000  0.772276000000  0  0  0  mag  0.0
0.544552000000  0.000000000000  0.772276000000  0  0  0  mag  0.0
0.794552000000  0.000000000000  0.772276000000  0  0  0  mag  0.0
0.877687000000  0.120627000000  0.188752000000  1  1  1  mag  0.0
0.877721000000  0.120615000000  0.438934000000  1  1  1  mag  0.0
0.877564000000  0.120828000000  0.938329000000  1  1  1  mag  0.0
0.627641000000  0.120429000000  0.188712000000  1  1  1  mag  0.0
0.377842000000  0.120442000000  0.188465000000  1  1  1  mag  0.0
0.128008000000  0.120482000000  0.188833000000  1  1  1  mag  0.0
0.877638000000  0.120839000000  0.689099000000  1  1  1  mag  0.0
0.128451000000  0.120442000000  0.939003000000  1  1  1  mag  0.0
0.627508000000  0.120840000000  0.439107000000  1  1  1  mag  0.0
0.377757000000  0.120506000000  0.938828000000  1  1  1  mag  0.0
0.128006000000  0.120660000000  0.438902000000  1  1  1  mag  0.0
0.627480000000  0.120917000000  0.938199000000  1  1  1  mag  0.0
0.627724000000  0.122060000000  0.688881000000  1  1  1  mag  0.0
0.128028000000  0.120508000000  0.688902000000  1  1  1  mag  0.0
0.378321000000  0.120867000000  0.439145000000  1  1  1  mag  0.0
0.378403000000  0.120871000000  0.689031000000  1  1  1  mag  0.0
0.958606000000  0.239875000000  0.853959000000  1  1  1  mag  0.0
0.961310000000  0.238798000000  0.105325000000  1  1  1  mag  0.0
0.961040000000  0.239371000000  0.355189000000  1  1  1  mag  0.0
0.460999000000  0.238762000000  0.105009000000  1  1  1  mag  0.0
0.710796000000  0.238806000000  0.105179000000  1  1  1  mag  0.0
0.710639000000  0.238696000000  0.354822000000  1  1  1  mag  0.0
0.961341000000  0.238834000000  0.605462000000  1  1  1  mag  0.0
0.211244000000  0.238663000000  0.105144000000  1  1  1  mag  0.0
0.462262000000  0.240032000000  0.357681000000  1  1  1  mag  0.0
0.211408000000  0.238705000000  0.855310000000  1  1  1  mag  0.0
0.710768000000  0.241059000000  0.854749000000  1  1  1  mag  0.0
0.710934000000  0.240932000000  0.605402000000  1  1  1  mag  0.0
0.211139000000  0.238848000000  0.354996000000  1  1  1  mag  0.0
0.462489000000  0.240221000000  0.853642000000  1  1  1  mag  0.0
0.461429000000  0.241242000000  0.605455000000  1  1  1  mag  0.0
0.211150000000  0.238944000000  0.605434000000  1  1  1  mag  0.0
0.044287000000  0.360056000000  0.271366000000  1  1  1  mag  0.0
0.543908000000  0.359667000000  0.270711000000  1  1  1  mag  0.0
0.044553000000  0.360087000000  0.521810000000  1  1  1  mag  0.0
0.543945000000  0.359822000000  0.021377000000  1  1  1  mag  0.0
0.044733000000  0.359598000000  0.021714000000  1  1  1  mag  0.0
0.793915000000  0.359936000000  0.271117000000  1  1  1  mag  0.0
0.294325000000  0.359615000000  0.021467000000  1  1  1  mag  0.0
0.798335000000  0.364891000000  0.773414000000  1  1  1  mag  0.0
0.796285000000  0.359412000000  0.025797000000  1  1  1  mag  0.0
0.796421000000  0.359316000000  0.519063000000  1  1  1  mag  0.0
0.044899000000  0.359557000000  0.771655000000  1  1  1  mag  0.0
0.293987000000  0.359769000000  0.270962000000  1  1  1  mag  0.0
0.541893000000  0.365354000000  0.517065000000  1  1  1  mag  0.0
0.542172000000  0.366021000000  0.773128000000  1  1  1  mag  0.0
0.294225000000  0.359762000000  0.771740000000  1  1  1  mag  0.0
0.289792000000  0.359532000000  0.519178000000  1  1  1  mag  0.0
