ATOMIC_SPECIES
H   1.00782503223 H_ONCV_PBE-1.0.upf
Au  196.96656879  Au_ONCV_PBE-1.0.upf

NUMERICAL_ORBITAL
H_gga_6au_100Ry_2s1p.orb
Au_gga_7au_100Ry_4s2p2d1f.orb

LATTICE_CONSTANT
1.889726

LATTICE_VECTORS
11.535195000      0.0000000000      0.0000000000      
0.0000000000      19.063793000      0.0000000000      
-5.767598000      0.0000000000      9.9897720000      

ATOMIC_POSITIONS
Direct

H
0.0000000000
2
0.4770510000 0.6240580000 0.6079680000 1 1 1 v 0.0 0.0 0.0 mag 0.0 
0.4773360000 0.6636140000 0.6079730000 1 1 1 v 0.0 0.0 0.0 mag 0.0 

Au
0.0000000000
64
0.0400220000 0.0995420000 0.0400430000 0 0 0 v 0.0 0.0 0.0 mag 0.0 
0.2900110000 0.0994650000 0.0399930000 0 0 0 v 0.0 0.0 0.0 mag 0.0 
0.5400320000 0.0995210000 0.0399310000 0 0 0 v 0.0 0.0 0.0 mag 0.0 
0.7900030000 0.0995810000 0.0399630000 0 0 0 v 0.0 0.0 0.0 mag 0.0 
0.0400590000 0.0995870000 0.2900230000 0 0 0 v 0.0 0.0 0.0 mag 0.0 
0.2900040000 0.0995520000 0.2900120000 0 0 0 v 0.0 0.0 0.0 mag 0.0 
0.5400250000 0.0994920000 0.2899890000 0 0 0 v 0.0 0.0 0.0 mag 0.0 
0.7900790000 0.0995160000 0.2899530000 0 0 0 v 0.0 0.0 0.0 mag 0.0 
0.0400910000 0.0995250000 0.5399930000 0 0 0 v 0.0 0.0 0.0 mag 0.0 
0.2900300000 0.0995860000 0.5399950000 0 0 0 v 0.0 0.0 0.0 mag 0.0 
0.5400120000 0.0995620000 0.5400070000 0 0 0 v 0.0 0.0 0.0 mag 0.0 
0.7900350000 0.0994910000 0.5400000000 0 0 0 v 0.0 0.0 0.0 mag 0.0 
0.0400460000 0.0994640000 0.7900200000 0 0 0 v 0.0 0.0 0.0 mag 0.0 
0.2900400000 0.0995200000 0.7899840000 0 0 0 v 0.0 0.0 0.0 mag 0.0 
0.5400260000 0.0995820000 0.7899880000 0 0 0 v 0.0 0.0 0.0 mag 0.0 
0.7900200000 0.0995470000 0.7900240000 0 0 0 v 0.0 0.0 0.0 mag 0.0 
0.1232720000 0.2229130000 0.2065740000 0 0 0 v 0.0 0.0 0.0 mag 0.0 
0.3732650000 0.2227610000 0.2064450000 0 0 0 v 0.0 0.0 0.0 mag 0.0 
0.6233940000 0.2228580000 0.2065580000 0 0 0 v 0.0 0.0 0.0 mag 0.0 
0.8733750000 0.2229740000 0.2066510000 0 0 0 v 0.0 0.0 0.0 mag 0.0 
0.1232500000 0.2228850000 0.4566100000 0 0 0 v 0.0 0.0 0.0 mag 0.0 
0.3732590000 0.2227390000 0.4565540000 0 0 0 v 0.0 0.0 0.0 mag 0.0 
0.6234890000 0.2226980000 0.4565500000 0 0 0 v 0.0 0.0 0.0 mag 0.0 
0.8734670000 0.2228590000 0.4566390000 0 0 0 v 0.0 0.0 0.0 mag 0.0 
0.1233680000 0.2228270000 0.7067450000 0 0 0 v 0.0 0.0 0.0 mag 0.0 
0.3733050000 0.2227700000 0.7067340000 0 0 0 v 0.0 0.0 0.0 mag 0.0 
0.6234820000 0.2227420000 0.7067750000 0 0 0 v 0.0 0.0 0.0 mag 0.0 
0.8735930000 0.2227620000 0.7067770000 0 0 0 v 0.0 0.0 0.0 mag 0.0 
0.1233690000 0.2228760000 0.9567030000 0 0 0 v 0.0 0.0 0.0 mag 0.0 
0.3732960000 0.2228260000 0.9566640000 0 0 0 v 0.0 0.0 0.0 mag 0.0 
0.6234240000 0.2228890000 0.9567740000 0 0 0 v 0.0 0.0 0.0 mag 0.0 
0.8734580000 0.2229150000 0.9567570000 0 0 0 v 0.0 0.0 0.0 mag 0.0 
0.2068670000 0.3467630000 0.1230900000 1 1 1 v 0.0 0.0 0.0 mag 0.0 
0.4568800000 0.3467220000 0.1230960000 1 1 1 v 0.0 0.0 0.0 mag 0.0 
0.7068530000 0.3468350000 0.1230660000 1 1 1 v 0.0 0.0 0.0 mag 0.0 
0.9568380000 0.3468480000 0.1231280000 1 1 1 v 0.0 0.0 0.0 mag 0.0 
0.2069110000 0.3466700000 0.3730940000 1 1 1 v 0.0 0.0 0.0 mag 0.0 
0.4568460000 0.3464680000 0.3730080000 1 1 1 v 0.0 0.0 0.0 mag 0.0 
0.7068920000 0.3466690000 0.3731740000 1 1 1 v 0.0 0.0 0.0 mag 0.0 
0.9569260000 0.3468010000 0.3731490000 1 1 1 v 0.0 0.0 0.0 mag 0.0 
0.2068300000 0.3466780000 0.6231640000 1 1 1 v 0.0 0.0 0.0 mag 0.0 
0.4568360000 0.3464070000 0.6230990000 1 1 1 v 0.0 0.0 0.0 mag 0.0 
0.7070340000 0.3464930000 0.6231700000 1 1 1 v 0.0 0.0 0.0 mag 0.0 
0.9569120000 0.3467110000 0.6231590000 1 1 1 v 0.0 0.0 0.0 mag 0.0 
0.2068790000 0.3467400000 0.8731790000 1 1 1 v 0.0 0.0 0.0 mag 0.0 
0.4568220000 0.3466720000 0.8732080000 1 1 1 v 0.0 0.0 0.0 mag 0.0 
0.7069760000 0.3466550000 0.8731420000 1 1 1 v 0.0 0.0 0.0 mag 0.0 
0.9569380000 0.3467450000 0.8731570000 1 1 1 v 0.0 0.0 0.0 mag 0.0 
0.0403540000 0.4741440000 0.0395210000 1 1 1 v 0.0 0.0 0.0 mag 0.0 
0.2903490000 0.4740640000 0.0396060000 1 1 1 v 0.0 0.0 0.0 mag 0.0 
0.5403030000 0.4740630000 0.0395220000 1 1 1 v 0.0 0.0 0.0 mag 0.0 
0.7903630000 0.4741090000 0.0395530000 1 1 1 v 0.0 0.0 0.0 mag 0.0 
0.0403690000 0.4741190000 0.2895430000 1 1 1 v 0.0 0.0 0.0 mag 0.0 
0.2904190000 0.4740180000 0.2896310000 1 1 1 v 0.0 0.0 0.0 mag 0.0 
0.5403590000 0.4739730000 0.2895530000 1 1 1 v 0.0 0.0 0.0 mag 0.0 
0.7903470000 0.4740990000 0.2895040000 1 1 1 v 0.0 0.0 0.0 mag 0.0 
0.0404090000 0.4740720000 0.5395890000 1 1 1 v 0.0 0.0 0.0 mag 0.0 
0.2903500000 0.4738370000 0.5395560000 1 1 1 v 0.0 0.0 0.0 mag 0.0 
0.5403940000 0.4734880000 0.5394710000 1 1 1 v 0.0 0.0 0.0 mag 0.0 
0.7903450000 0.4739700000 0.5395390000 1 1 1 v 0.0 0.0 0.0 mag 0.0 
0.0402900000 0.4740820000 0.7895580000 1 1 1 v 0.0 0.0 0.0 mag 0.0 
0.2903240000 0.4740480000 0.7895580000 1 1 1 v 0.0 0.0 0.0 mag 0.0 
0.5403290000 0.4737780000 0.7895900000 1 1 1 v 0.0 0.0 0.0 mag 0.0 
0.7903010000 0.4740330000 0.7894780000 1 1 1 v 0.0 0.0 0.0 mag 0.0 

