ATOMIC_SPECIES
C   12.011        C_ONCV_PBE-1.0.upf
O   15.999        O_ONCV_PBE-1.0.upf
Pt  195.084       Pt_ONCV_PBE-1.0.upf

NUMERICAL_ORBITAL
C_gga_7au_100Ry_2s2p1d.orb
O_gga_7au_100Ry_2s2p1d.orb
Pt_gga_7au_100Ry_4s2p2d1f.orb

LATTICE_CONSTANT
1.889726

LATTICE_VECTORS
11.187398000      0.0000000000      0.0000000000      
0.0000000000      18.850897000      0.0000000000      
-5.593699000      0.0000000000      9.6885710000      

ATOMIC_POSITIONS
Direct

C
0.0000000000
1
0.4305750000 0.4317830000 0.6737220000 1 1 1 mag 0.0 

O
0.0000000000
1
0.4658670000 0.4543350000 0.5101070000 1 1 1 mag 0.0 

Pt
0.0000000000
64
0.0451310000 0.9998610000 0.0225280000 0 0 0 mag 0.0 
0.2949110000 0.9997800000 0.0224620000 0 0 0 mag 0.0 
0.5449540000 0.9996680000 0.0225190000 0 0 0 mag 0.0 
0.7951080000 0.9997000000 0.0225730000 0 0 0 mag 0.0 
0.0450280000 0.9997900000 0.2725260000 0 0 0 mag 0.0 
0.2949250000 0.9997440000 0.2724500000 0 0 0 mag 0.0 
0.5449590000 0.9997240000 0.2725350000 0 0 0 mag 0.0 
0.7950390000 0.9997830000 0.2725700000 0 0 0 mag 0.0 
0.2949060000 0.9997160000 0.5224380000 0 0 0 mag 0.0 
0.5449750000 0.9996630000 0.5224680000 0 0 0 mag 0.0 
0.7950720000 0.9998040000 0.5225340000 0 0 0 mag 0.0 
0.0449920000 0.9998380000 0.5224830000 0 0 0 mag 0.0 
0.0451100000 0.9999260000 0.7725080000 0 0 0 mag 0.0 
0.2949040000 0.9997320000 0.7724540000 0 0 0 mag 0.0 
0.5449740000 0.9996130000 0.7724880000 0 0 0 mag 0.0 
0.7951370000 0.9997220000 0.7725320000 0 0 0 mag 0.0 
0.8788140000 0.1200100000 0.1896080000 1 1 1 mag 0.0 
0.8788610000 0.1201720000 0.4394680000 1 1 1 mag 0.0 
0.8796890000 0.1194160000 0.9398820000 1 1 1 mag 0.0 
0.6284190000 0.1200100000 0.1893040000 1 1 1 mag 0.0 
0.3787730000 0.1200460000 0.1901270000 1 1 1 mag 0.0 
0.1293670000 0.1201990000 0.1902580000 1 1 1 mag 0.0 
0.8787020000 0.1204850000 0.6892020000 1 1 1 mag 0.0 
0.1289590000 0.1207800000 0.9393930000 1 1 1 mag 0.0 
0.6283730000 0.1208270000 0.4403950000 1 1 1 mag 0.0 
0.3783570000 0.1202120000 0.9387430000 1 1 1 mag 0.0 
0.1298460000 0.1209560000 0.4400740000 1 1 1 mag 0.0 
0.6279030000 0.1202500000 0.9383110000 1 1 1 mag 0.0 
0.6287070000 0.1209570000 0.6889230000 1 1 1 mag 0.0 
0.1291760000 0.1209480000 0.6890640000 1 1 1 mag 0.0 
0.3785050000 0.1212230000 0.4396350000 1 1 1 mag 0.0 
0.3786350000 0.1213230000 0.6887160000 1 1 1 mag 0.0 
0.9625900000 0.2382780000 0.8561800000 1 1 1 mag 0.0 
0.9631900000 0.2380080000 0.1064040000 1 1 1 mag 0.0 
0.9623730000 0.2383530000 0.3562530000 1 1 1 mag 0.0 
0.4612410000 0.2378880000 0.1056750000 1 1 1 mag 0.0 
0.7122420000 0.2381110000 0.1059850000 1 1 1 mag 0.0 
0.7123280000 0.2381050000 0.3563000000 1 1 1 mag 0.0 
0.9625710000 0.2385440000 0.6068000000 1 1 1 mag 0.0 
0.2123990000 0.2385740000 0.1069060000 1 1 1 mag 0.0 
0.4624370000 0.2402710000 0.3573710000 1 1 1 mag 0.0 
0.2125780000 0.2394220000 0.8553670000 1 1 1 mag 0.0 
0.7132270000 0.2386150000 0.8565840000 1 1 1 mag 0.0 
0.7087670000 0.2418820000 0.6043700000 1 1 1 mag 0.0 
0.2134180000 0.2410900000 0.3584220000 1 1 1 mag 0.0 
0.4621290000 0.2399520000 0.8553890000 1 1 1 mag 0.0 
0.4628850000 0.2412690000 0.6063740000 1 1 1 mag 0.0 
0.2140360000 0.2417710000 0.6057500000 1 1 1 mag 0.0 
0.0450460000 0.3593250000 0.2723590000 1 1 1 mag 0.0 
0.5463770000 0.3586870000 0.2716510000 1 1 1 mag 0.0 
0.0426500000 0.3596900000 0.5215210000 1 1 1 mag 0.0 
0.5470900000 0.3585510000 0.0272600000 1 1 1 mag 0.0 
0.0458840000 0.3601270000 0.0229210000 1 1 1 mag 0.0 
0.7955490000 0.3592420000 0.2727120000 1 1 1 mag 0.0 
0.2958420000 0.3597790000 0.0226070000 1 1 1 mag 0.0 
0.8024790000 0.3598520000 0.7759870000 1 1 1 mag 0.0 
0.7996060000 0.3592990000 0.0265830000 1 1 1 mag 0.0 
0.7981080000 0.3594430000 0.5225900000 1 1 1 mag 0.0 
0.0461430000 0.3602260000 0.7731110000 1 1 1 mag 0.0 
0.2930690000 0.3595350000 0.2671180000 1 1 1 mag 0.0 
0.5527340000 0.3669180000 0.5213360000 1 1 1 mag 0.0 
0.5610460000 0.3619170000 0.7835890000 1 1 1 mag 0.0 
0.2934590000 0.3630820000 0.7760190000 1 1 1 mag 0.0 
0.2945210000 0.3694500000 0.5272530000 1 1 1 mag 0.0 

