ATOMIC_SPECIES
Li  6.94          Li_ONCV_PBE-1.2.upf
Si  28.085        Si_ONCV_PBE-1.2.upf

NUMERICAL_ORBITAL
Li_gga_8au_100Ry_4s1p.orb
Si_gga_8au_100Ry_2s2p1d.orb

LATTICE_CONSTANT
1.8897261258369282 

LATTICE_VECTORS
10.862000000      0.0000000000      0.0000000000      
0.0000000000      10.862000000      0.0000000000      
0.0000000000      0.0000000000      10.862000000      

ATOMIC_POSITIONS
Direct

Li
0.0000000000
1
0.5493500000 0.5493510000 0.5493510000 1 1 1 v 0.0 0.0 0.0 mag 0.0 

Si
0.0000000000
64
0.1284940000 0.3775490000 0.1285010000 1 1 1 v 0.0 0.0 0.0 mag 0.0 
0.1275740000 0.3776720000 0.6276880000 1 1 1 v 0.0 0.0 0.0 mag 0.0 
0.1268480000 0.8778750000 0.1268690000 1 1 1 v 0.0 0.0 0.0 mag 0.0 
0.1269480000 0.8786220000 0.6272180000 1 1 1 v 0.0 0.0 0.0 mag 0.0 
0.6277090000 0.3776710000 0.1275810000 1 1 1 v 0.0 0.0 0.0 mag 0.0 
0.6326750000 0.3706120000 0.6326530000 1 1 1 v 0.0 0.0 0.0 mag 0.0 
0.6272220000 0.8786190000 0.1269710000 1 1 1 v 0.0 0.0 0.0 mag 0.0 
0.6272400000 0.8784490000 0.6272340000 1 1 1 v 0.0 0.0 0.0 mag 0.0 
0.0037180000 0.0036880000 0.2524340000 1 1 1 v 0.0 0.0 0.0 mag 0.0 
0.0019720000 0.0019490000 0.7529830000 1 1 1 v 0.0 0.0 0.0 mag 0.0 
0.0034190000 0.5029370000 0.2522410000 1 1 1 v 0.0 0.0 0.0 mag 0.0 
0.0030730000 0.5028060000 0.7526610000 1 1 1 v 0.0 0.0 0.0 mag 0.0 
0.5029140000 0.0033850000 0.2522460000 1 1 1 v 0.0 0.0 0.0 mag 0.0 
0.5027720000 0.0030540000 0.7526660000 1 1 1 v 0.0 0.0 0.0 mag 0.0 
0.5038740000 0.5038970000 0.2523450000 1 1 1 v 0.0 0.0 0.0 mag 0.0 
0.4999380000 0.4999660000 0.7591170000 1 1 1 v 0.0 0.0 0.0 mag 0.0 
0.1284920000 0.1285180000 0.3775490000 1 1 1 v 0.0 0.0 0.0 mag 0.0 
0.1268450000 0.1268850000 0.8778670000 1 1 1 v 0.0 0.0 0.0 mag 0.0 
0.1275730000 0.6276770000 0.3776740000 1 1 1 v 0.0 0.0 0.0 mag 0.0 
0.1269470000 0.6272040000 0.8786160000 1 1 1 v 0.0 0.0 0.0 mag 0.0 
0.6277060000 0.1276000000 0.3776720000 1 1 1 v 0.0 0.0 0.0 mag 0.0 
0.6272250000 0.1269860000 0.8786090000 1 1 1 v 0.0 0.0 0.0 mag 0.0 
0.6326780000 0.6326420000 0.3706200000 1 1 1 v 0.0 0.0 0.0 mag 0.0 
0.6272370000 0.6272220000 0.8784420000 1 1 1 v 0.0 0.0 0.0 mag 0.0 
0.0037160000 0.2524290000 0.0036970000 1 1 1 v 0.0 0.0 0.0 mag 0.0 
0.0034180000 0.2522370000 0.5029210000 1 1 1 v 0.0 0.0 0.0 mag 0.0 
0.0019700000 0.7529860000 0.0019650000 1 1 1 v 0.0 0.0 0.0 mag 0.0 
0.0030730000 0.7526670000 0.5027940000 1 1 1 v 0.0 0.0 0.0 mag 0.0 
0.5029160000 0.2522390000 0.0033980000 1 1 1 v 0.0 0.0 0.0 mag 0.0 
0.5038740000 0.2523380000 0.5038810000 1 1 1 v 0.0 0.0 0.0 mag 0.0 
0.5027710000 0.7526700000 0.0030690000 1 1 1 v 0.0 0.0 0.0 mag 0.0 
0.4999380000 0.7591270000 0.4999590000 1 1 1 v 0.0 0.0 0.0 mag 0.0 
0.3794180000 0.3793980000 0.3794080000 1 1 1 v 0.0 0.0 0.0 mag 0.0 
0.3740530000 0.3740470000 0.8798480000 1 1 1 v 0.0 0.0 0.0 mag 0.0 
0.3740510000 0.8798530000 0.3740570000 1 1 1 v 0.0 0.0 0.0 mag 0.0 
0.3786730000 0.8797220000 0.8797240000 1 1 1 v 0.0 0.0 0.0 mag 0.0 
0.8798400000 0.3740510000 0.3740440000 1 1 1 v 0.0 0.0 0.0 mag 0.0 
0.8797070000 0.3786820000 0.8797050000 1 1 1 v 0.0 0.0 0.0 mag 0.0 
0.8797090000 0.8797220000 0.3786770000 1 1 1 v 0.0 0.0 0.0 mag 0.0 
0.8763380000 0.8763630000 0.8763510000 1 1 1 v 0.0 0.0 0.0 mag 0.0 
0.2524420000 0.0036870000 0.0037090000 1 1 1 v 0.0 0.0 0.0 mag 0.0 
0.2522510000 0.0033840000 0.5029290000 1 1 1 v 0.0 0.0 0.0 mag 0.0 
0.2522470000 0.5029330000 0.0034070000 1 1 1 v 0.0 0.0 0.0 mag 0.0 
0.2523490000 0.5038940000 0.5038890000 1 1 1 v 0.0 0.0 0.0 mag 0.0 
0.7529800000 0.0019520000 0.0019570000 1 1 1 v 0.0 0.0 0.0 mag 0.0 
0.7526590000 0.0030550000 0.5027840000 1 1 1 v 0.0 0.0 0.0 mag 0.0 
0.7526540000 0.5028090000 0.0030580000 1 1 1 v 0.0 0.0 0.0 mag 0.0 
0.7591060000 0.4999670000 0.4999440000 1 1 1 v 0.0 0.0 0.0 mag 0.0 
0.3775480000 0.1285140000 0.1285080000 1 1 1 v 0.0 0.0 0.0 mag 0.0 
0.3776750000 0.1276000000 0.6276960000 1 1 1 v 0.0 0.0 0.0 mag 0.0 
0.3776770000 0.6276740000 0.1275930000 1 1 1 v 0.0 0.0 0.0 mag 0.0 
0.3706280000 0.6326440000 0.6326660000 1 1 1 v 0.0 0.0 0.0 mag 0.0 
0.8778580000 0.1268850000 0.1268620000 1 1 1 v 0.0 0.0 0.0 mag 0.0 
0.8786010000 0.1269860000 0.6272110000 1 1 1 v 0.0 0.0 0.0 mag 0.0 
0.8786060000 0.6272080000 0.1269600000 1 1 1 v 0.0 0.0 0.0 mag 0.0 
0.8784350000 0.6272210000 0.6272260000 1 1 1 v 0.0 0.0 0.0 mag 0.0 
0.2539760000 0.2539520000 0.2539640000 1 1 1 v 0.0 0.0 0.0 mag 0.0 
0.2510280000 0.2510130000 0.7519610000 1 1 1 v 0.0 0.0 0.0 mag 0.0 
0.2510280000 0.7519620000 0.2510300000 1 1 1 v 0.0 0.0 0.0 mag 0.0 
0.2494540000 0.7574950000 0.7574970000 1 1 1 v 0.0 0.0 0.0 mag 0.0 
0.7519610000 0.2510150000 0.2510120000 1 1 1 v 0.0 0.0 0.0 mag 0.0 
0.7574840000 0.2494400000 0.7574830000 1 1 1 v 0.0 0.0 0.0 mag 0.0 
0.7574820000 0.7574980000 0.2494470000 1 1 1 v 0.0 0.0 0.0 mag 0.0 
0.7511210000 0.7511480000 0.7511350000 1 1 1 v 0.0 0.0 0.0 mag 0.0 

