ATOMIC_SPECIES
Cu  63.546        Cu_ONCV_PBE-1.0.upf
N   14.007        N_ONCV_PBE-1.0.upf

NUMERICAL_ORBITAL
Cu_gga_8au_100Ry_4s2p2d1f.orb
N_gga_7au_100Ry_2s2p1d.orb

LATTICE_CONSTANT
1.8897261258369282 

LATTICE_VECTORS
10.210600000      0.0000000000      0.0000000000      
0.0000000000      30.252700000      0.0000000000      
5.1053100000      0.0000000000      8.8426600000      

ATOMIC_POSITIONS
Direct

Cu
0.0000000000
64
0.0500000000 0.3966590000 0.0500000000 0 0 0 v 0.0 0.0 0.0 mag 0.0 
0.3000000000 0.3966590000 0.0500000000 0 0 0 v 0.0 0.0 0.0 mag 0.0 
0.5500000000 0.3966590000 0.0500000000 0 0 0 v 0.0 0.0 0.0 mag 0.0 
0.8000000000 0.3966590000 0.0500000000 0 0 0 v 0.0 0.0 0.0 mag 0.0 
0.0500000000 0.3966590000 0.3000000000 0 0 0 v 0.0 0.0 0.0 mag 0.0 
0.3000000000 0.3966590000 0.3000000000 0 0 0 v 0.0 0.0 0.0 mag 0.0 
0.5500000000 0.3966590000 0.3000000000 0 0 0 v 0.0 0.0 0.0 mag 0.0 
0.8000000000 0.3966590000 0.3000000000 0 0 0 v 0.0 0.0 0.0 mag 0.0 
0.0500000000 0.3966590000 0.5500000000 0 0 0 v 0.0 0.0 0.0 mag 0.0 
0.3000000000 0.3966590000 0.5500000000 0 0 0 v 0.0 0.0 0.0 mag 0.0 
0.5500000000 0.3966590000 0.5500000000 0 0 0 v 0.0 0.0 0.0 mag 0.0 
0.8000000000 0.3966590000 0.5500000000 0 0 0 v 0.0 0.0 0.0 mag 0.0 
0.0500000000 0.3966590000 0.8000000000 0 0 0 v 0.0 0.0 0.0 mag 0.0 
0.3000000000 0.3966590000 0.8000000000 0 0 0 v 0.0 0.0 0.0 mag 0.0 
0.5500000000 0.3966590000 0.8000000000 0 0 0 v 0.0 0.0 0.0 mag 0.0 
0.8000000000 0.3966590000 0.8000000000 0 0 0 v 0.0 0.0 0.0 mag 0.0 
0.1333330000 0.4655530000 0.1333330000 0 0 0 v 0.0 0.0 0.0 mag 0.0 
0.3833330000 0.4655530000 0.1333330000 0 0 0 v 0.0 0.0 0.0 mag 0.0 
0.6333330000 0.4655530000 0.1333330000 0 0 0 v 0.0 0.0 0.0 mag 0.0 
0.8833330000 0.4655530000 0.1333330000 0 0 0 v 0.0 0.0 0.0 mag 0.0 
0.1333330000 0.4655530000 0.3833330000 0 0 0 v 0.0 0.0 0.0 mag 0.0 
0.3833330000 0.4655530000 0.3833330000 0 0 0 v 0.0 0.0 0.0 mag 0.0 
0.6333330000 0.4655530000 0.3833330000 0 0 0 v 0.0 0.0 0.0 mag 0.0 
0.8833330000 0.4655530000 0.3833330000 0 0 0 v 0.0 0.0 0.0 mag 0.0 
0.1333330000 0.4655530000 0.6333330000 0 0 0 v 0.0 0.0 0.0 mag 0.0 
0.3833330000 0.4655530000 0.6333330000 0 0 0 v 0.0 0.0 0.0 mag 0.0 
0.6333330000 0.4655530000 0.6333330000 0 0 0 v 0.0 0.0 0.0 mag 0.0 
0.8833330000 0.4655530000 0.6333330000 0 0 0 v 0.0 0.0 0.0 mag 0.0 
0.1333330000 0.4655530000 0.8833330000 0 0 0 v 0.0 0.0 0.0 mag 0.0 
0.3833330000 0.4655530000 0.8833330000 0 0 0 v 0.0 0.0 0.0 mag 0.0 
0.6333330000 0.4655530000 0.8833330000 0 0 0 v 0.0 0.0 0.0 mag 0.0 
0.8833330000 0.4655530000 0.8833330000 0 0 0 v 0.0 0.0 0.0 mag 0.0 
0.9666690000 0.5324180000 0.2163750000 1 1 1 v 0.0 0.0 0.0 mag 0.0 
0.2168380000 0.5324040000 0.2162370000 1 1 1 v 0.0 0.0 0.0 mag 0.0 
0.4665450000 0.5324360000 0.2166180000 1 1 1 v 0.0 0.0 0.0 mag 0.0 
0.7166060000 0.5324030000 0.2161530000 1 1 1 v 0.0 0.0 0.0 mag 0.0 
0.9677430000 0.5320660000 0.4657890000 1 1 1 v 0.0 0.0 0.0 mag 0.0 
0.2171240000 0.5323690000 0.4662220000 1 1 1 v 0.0 0.0 0.0 mag 0.0 
0.4663030000 0.5323470000 0.4661570000 1 1 1 v 0.0 0.0 0.0 mag 0.0 
0.7161930000 0.5320880000 0.4658420000 1 1 1 v 0.0 0.0 0.0 mag 0.0 
0.9670120000 0.5322800000 0.7162210000 1 1 1 v 0.0 0.0 0.0 mag 0.0 
0.2165430000 0.5324190000 0.7164660000 1 1 1 v 0.0 0.0 0.0 mag 0.0 
0.4663160000 0.5322060000 0.7161590000 1 1 1 v 0.0 0.0 0.0 mag 0.0 
0.7166160000 0.5320800000 0.7165660000 1 1 1 v 0.0 0.0 0.0 mag 0.0 
0.9665820000 0.5325100000 0.9664460000 1 1 1 v 0.0 0.0 0.0 mag 0.0 
0.2166300000 0.5324880000 0.9664760000 1 1 1 v 0.0 0.0 0.0 mag 0.0 
0.4662540000 0.5321670000 0.9671770000 1 1 1 v 0.0 0.0 0.0 mag 0.0 
0.7163740000 0.5322670000 0.9668520000 1 1 1 v 0.0 0.0 0.0 mag 0.0 
0.0499450000 0.5997900000 0.0494710000 1 1 1 v 0.0 0.0 0.0 mag 0.0 
0.2999070000 0.5998860000 0.0496940000 1 1 1 v 0.0 0.0 0.0 mag 0.0 
0.5499200000 0.5997280000 0.0495620000 1 1 1 v 0.0 0.0 0.0 mag 0.0 
0.7998200000 0.5998840000 0.0495570000 1 1 1 v 0.0 0.0 0.0 mag 0.0 
0.0504330000 0.5997970000 0.2989990000 1 1 1 v 0.0 0.0 0.0 mag 0.0 
0.3000540000 0.5997940000 0.2995330000 1 1 1 v 0.0 0.0 0.0 mag 0.0 
0.5498980000 0.5998110000 0.2995350000 1 1 1 v 0.0 0.0 0.0 mag 0.0 
0.8000100000 0.5997650000 0.2989800000 1 1 1 v 0.0 0.0 0.0 mag 0.0 
0.0504300000 0.5994680000 0.5491860000 1 1 1 v 0.0 0.0 0.0 mag 0.0 
0.2999270000 0.5998620000 0.5495790000 1 1 1 v 0.0 0.0 0.0 mag 0.0 
0.5497650000 0.5993780000 0.5492630000 1 1 1 v 0.0 0.0 0.0 mag 0.0 
0.8011940000 0.5979590000 0.5475130000 1 1 1 v 0.0 0.0 0.0 mag 0.0 
0.0500840000 0.5998280000 0.7994910000 1 1 1 v 0.0 0.0 0.0 mag 0.0 
0.2997360000 0.5998150000 0.7995480000 1 1 1 v 0.0 0.0 0.0 mag 0.0 
0.5484200000 0.5985730000 0.8006290000 1 1 1 v 0.0 0.0 0.0 mag 0.0 
0.8003700000 0.5990060000 0.8001540000 1 1 1 v 0.0 0.0 0.0 mag 0.0 

N
0.0000000000
2
0.6758050000 0.6913000000 0.6571210000 1 1 1 v 0.0 0.0 0.0 mag 0.0 
0.7749200000 0.6901420000 0.6732790000 1 1 1 v 0.0 0.0 0.0 mag 0.0 

