ATOMIC_SPECIES
Cu  63.546        Cu_ONCV_PBE-1.0.upf
N   14.007        N_ONCV_PBE-1.0.upf

NUMERICAL_ORBITAL
Cu_gga_8au_100Ry_4s2p2d1f.orb
N_gga_7au_100Ry_2s2p1d.orb

LATTICE_CONSTANT
1.8897261258369282 

LATTICE_VECTORS
10.210600000      0.0000000000      0.0000000000      
0.0000000000      30.252700000      0.0000000000      
5.1053100000      0.0000000000      8.8426600000      

ATOMIC_POSITIONS
Direct

Cu
0.0000000000
64
0.0500000000 0.3966590000 0.0500000000 0 0 0 v 0.0 0.0 0.0 mag 0.0 
0.3000000000 0.3966590000 0.0500000000 0 0 0 v 0.0 0.0 0.0 mag 0.0 
0.5500000000 0.3966590000 0.0500000000 0 0 0 v 0.0 0.0 0.0 mag 0.0 
0.8000000000 0.3966590000 0.0500000000 0 0 0 v 0.0 0.0 0.0 mag 0.0 
0.0500000000 0.3966590000 0.3000000000 0 0 0 v 0.0 0.0 0.0 mag 0.0 
0.3000000000 0.3966590000 0.3000000000 0 0 0 v 0.0 0.0 0.0 mag 0.0 
0.5500000000 0.3966590000 0.3000000000 0 0 0 v 0.0 0.0 0.0 mag 0.0 
0.8000000000 0.3966590000 0.3000000000 0 0 0 v 0.0 0.0 0.0 mag 0.0 
0.0500000000 0.3966590000 0.5500000000 0 0 0 v 0.0 0.0 0.0 mag 0.0 
0.3000000000 0.3966590000 0.5500000000 0 0 0 v 0.0 0.0 0.0 mag 0.0 
0.5500000000 0.3966590000 0.5500000000 0 0 0 v 0.0 0.0 0.0 mag 0.0 
0.8000000000 0.3966590000 0.5500000000 0 0 0 v 0.0 0.0 0.0 mag 0.0 
0.0500000000 0.3966590000 0.8000000000 0 0 0 v 0.0 0.0 0.0 mag 0.0 
0.3000000000 0.3966590000 0.8000000000 0 0 0 v 0.0 0.0 0.0 mag 0.0 
0.5500000000 0.3966590000 0.8000000000 0 0 0 v 0.0 0.0 0.0 mag 0.0 
0.8000000000 0.3966590000 0.8000000000 0 0 0 v 0.0 0.0 0.0 mag 0.0 
0.1333330000 0.4655530000 0.1333330000 0 0 0 v 0.0 0.0 0.0 mag 0.0 
0.3833330000 0.4655530000 0.1333330000 0 0 0 v 0.0 0.0 0.0 mag 0.0 
0.6333330000 0.4655530000 0.1333330000 0 0 0 v 0.0 0.0 0.0 mag 0.0 
0.8833330000 0.4655530000 0.1333330000 0 0 0 v 0.0 0.0 0.0 mag 0.0 
0.1333330000 0.4655530000 0.3833330000 0 0 0 v 0.0 0.0 0.0 mag 0.0 
0.3833330000 0.4655530000 0.3833330000 0 0 0 v 0.0 0.0 0.0 mag 0.0 
0.6333330000 0.4655530000 0.3833330000 0 0 0 v 0.0 0.0 0.0 mag 0.0 
0.8833330000 0.4655530000 0.3833330000 0 0 0 v 0.0 0.0 0.0 mag 0.0 
0.1333330000 0.4655530000 0.6333330000 0 0 0 v 0.0 0.0 0.0 mag 0.0 
0.3833330000 0.4655530000 0.6333330000 0 0 0 v 0.0 0.0 0.0 mag 0.0 
0.6333330000 0.4655530000 0.6333330000 0 0 0 v 0.0 0.0 0.0 mag 0.0 
0.8833330000 0.4655530000 0.6333330000 0 0 0 v 0.0 0.0 0.0 mag 0.0 
0.1333330000 0.4655530000 0.8833330000 0 0 0 v 0.0 0.0 0.0 mag 0.0 
0.3833330000 0.4655530000 0.8833330000 0 0 0 v 0.0 0.0 0.0 mag 0.0 
0.6333330000 0.4655530000 0.8833330000 0 0 0 v 0.0 0.0 0.0 mag 0.0 
0.8833330000 0.4655530000 0.8833330000 0 0 0 v 0.0 0.0 0.0 mag 0.0 
0.9666630000 0.5323590000 0.2162840000 1 1 1 v 0.0 0.0 0.0 mag 0.0 
0.2169130000 0.5323330000 0.2161530000 1 1 1 v 0.0 0.0 0.0 mag 0.0 
0.4665090000 0.5323610000 0.2166040000 1 1 1 v 0.0 0.0 0.0 mag 0.0 
0.7165440000 0.5323350000 0.2160360000 1 1 1 v 0.0 0.0 0.0 mag 0.0 
0.9678830000 0.5319500000 0.4656300000 1 1 1 v 0.0 0.0 0.0 mag 0.0 
0.2172490000 0.5322770000 0.4661160000 1 1 1 v 0.0 0.0 0.0 mag 0.0 
0.4662220000 0.5322750000 0.4660610000 1 1 1 v 0.0 0.0 0.0 mag 0.0 
0.7160630000 0.5319640000 0.4656550000 1 1 1 v 0.0 0.0 0.0 mag 0.0 
0.9670470000 0.5322000000 0.7161120000 1 1 1 v 0.0 0.0 0.0 mag 0.0 
0.2165190000 0.5323550000 0.7164320000 1 1 1 v 0.0 0.0 0.0 mag 0.0 
0.4662740000 0.5321160000 0.7160340000 1 1 1 v 0.0 0.0 0.0 mag 0.0 
0.7166060000 0.5319980000 0.7164770000 1 1 1 v 0.0 0.0 0.0 mag 0.0 
0.9665440000 0.5324490000 0.9664060000 1 1 1 v 0.0 0.0 0.0 mag 0.0 
0.2166130000 0.5324370000 0.9664390000 1 1 1 v 0.0 0.0 0.0 mag 0.0 
0.4662350000 0.5320850000 0.9671720000 1 1 1 v 0.0 0.0 0.0 mag 0.0 
0.7163160000 0.5321940000 0.9668080000 1 1 1 v 0.0 0.0 0.0 mag 0.0 
0.0499360000 0.5996840000 0.0493070000 1 1 1 v 0.0 0.0 0.0 mag 0.0 
0.2998620000 0.5997760000 0.0496390000 1 1 1 v 0.0 0.0 0.0 mag 0.0 
0.5498530000 0.5995690000 0.0495280000 1 1 1 v 0.0 0.0 0.0 mag 0.0 
0.7997790000 0.5997740000 0.0494440000 1 1 1 v 0.0 0.0 0.0 mag 0.0 
0.0506270000 0.5996550000 0.2986380000 1 1 1 v 0.0 0.0 0.0 mag 0.0 
0.3000760000 0.5996950000 0.2994450000 1 1 1 v 0.0 0.0 0.0 mag 0.0 
0.5498220000 0.5997000000 0.2994430000 1 1 1 v 0.0 0.0 0.0 mag 0.0 
0.8000100000 0.5996310000 0.2986060000 1 1 1 v 0.0 0.0 0.0 mag 0.0 
0.0506400000 0.5992230000 0.5488930000 1 1 1 v 0.0 0.0 0.0 mag 0.0 
0.2998950000 0.5997480000 0.5494910000 1 1 1 v 0.0 0.0 0.0 mag 0.0 
0.5496730000 0.5991940000 0.5490750000 1 1 1 v 0.0 0.0 0.0 mag 0.0 
0.8014270000 0.5975600000 0.5466340000 1 1 1 v 0.0 0.0 0.0 mag 0.0 
0.0501350000 0.5996980000 0.7993910000 1 1 1 v 0.0 0.0 0.0 mag 0.0 
0.2996280000 0.5997050000 0.7994600000 1 1 1 v 0.0 0.0 0.0 mag 0.0 
0.5479280000 0.5982990000 0.8007390000 1 1 1 v 0.0 0.0 0.0 mag 0.0 
0.8005200000 0.5987550000 0.8001800000 1 1 1 v 0.0 0.0 0.0 mag 0.0 

N
0.0000000000
2
0.6833120000 0.6877230000 0.6582120000 1 1 1 v 0.0 0.0 0.0 mag 0.0 
0.7805090000 0.6862300000 0.6775420000 1 1 1 v 0.0 0.0 0.0 mag 0.0 

