ATOMIC_SPECIES
Cu   63.546  Cu_ONCV_PBE-1.0.upf
N   14.007  N_ONCV_PBE-1.0.upf

NUMERICAL_ORBITAL
Cu_gga_8au_100Ry_4s2p2d1f.orb
N_gga_7au_100Ry_2s2p1d.orb

LATTICE_CONSTANT
1.889726

LATTICE_VECTORS
10.21062058147  0.000000000000  0.000000000000
0.000000000000  30.25269875996  0.000000000000
5.105309790737  0.000000000000  8.842656637547

ATOMIC_POSITIONS
Direct

Cu
0.000
64
0.050000000000  0.396659000000  0.050000000000  0  0  0  mag  0.0
0.300000000000  0.396659000000  0.050000000000  0  0  0  mag  0.0
0.550000000000  0.396659000000  0.050000000000  0  0  0  mag  0.0
0.800000000000  0.396659000000  0.050000000000  0  0  0  mag  0.0
0.050000000000  0.396659000000  0.300000000000  0  0  0  mag  0.0
0.300000000000  0.396659000000  0.300000000000  0  0  0  mag  0.0
0.550000000000  0.396659000000  0.300000000000  0  0  0  mag  0.0
0.800000000000  0.396659000000  0.300000000000  0  0  0  mag  0.0
0.050000000000  0.396659000000  0.550000000000  0  0  0  mag  0.0
0.300000000000  0.396659000000  0.550000000000  0  0  0  mag  0.0
0.550000000000  0.396659000000  0.550000000000  0  0  0  mag  0.0
0.800000000000  0.396659000000  0.550000000000  0  0  0  mag  0.0
0.050000000000  0.396659000000  0.800000000000  0  0  0  mag  0.0
0.300000000000  0.396659000000  0.800000000000  0  0  0  mag  0.0
0.550000000000  0.396659000000  0.800000000000  0  0  0  mag  0.0
0.800000000000  0.396659000000  0.800000000000  0  0  0  mag  0.0
0.133333000000  0.465553000000  0.133333000000  0  0  0  mag  0.0
0.383333000000  0.465553000000  0.133333000000  0  0  0  mag  0.0
0.633333000000  0.465553000000  0.133333000000  0  0  0  mag  0.0
0.883333000000  0.465553000000  0.133333000000  0  0  0  mag  0.0
0.133333000000  0.465553000000  0.383333000000  0  0  0  mag  0.0
0.383333000000  0.465553000000  0.383333000000  0  0  0  mag  0.0
0.633333000000  0.465553000000  0.383333000000  0  0  0  mag  0.0
0.883333000000  0.465553000000  0.383333000000  0  0  0  mag  0.0
0.133333000000  0.465553000000  0.633333000000  0  0  0  mag  0.0
0.383333000000  0.465553000000  0.633333000000  0  0  0  mag  0.0
0.633333000000  0.465553000000  0.633333000000  0  0  0  mag  0.0
0.883333000000  0.465553000000  0.633333000000  0  0  0  mag  0.0
0.133333000000  0.465553000000  0.883333000000  0  0  0  mag  0.0
0.383333000000  0.465553000000  0.883333000000  0  0  0  mag  0.0
0.633333000000  0.465553000000  0.883333000000  0  0  0  mag  0.0
0.883333000000  0.465553000000  0.883333000000  0  0  0  mag  0.0
0.966499000000  0.532187000000  0.216086000000  1  1  1  mag  0.0
0.215665000000  0.532140000000  0.216967000000  1  1  1  mag  0.0
0.466371000000  0.531310000000  0.216344000000  1  1  1  mag  0.0
0.716454000000  0.532142000000  0.216938000000  1  1  1  mag  0.0
0.963458000000  0.533755000000  0.467849000000  1  1  1  mag  0.0
0.216474000000  0.531965000000  0.465244000000  1  1  1  mag  0.0
0.467359000000  0.531964000000  0.465191000000  1  1  1  mag  0.0
0.717768000000  0.533782000000  0.467793000000  1  1  1  mag  0.0
0.965647000000  0.533091000000  0.715728000000  1  1  1  mag  0.0
0.216649000000  0.532771000000  0.715864000000  1  1  1  mag  0.0
0.467768000000  0.533092000000  0.715661000000  1  1  1  mag  0.0
0.716740000000  0.534433000000  0.715573000000  1  1  1  mag  0.0
0.967170000000  0.532494000000  0.964899000000  1  1  1  mag  0.0
0.217133000000  0.532498000000  0.964881000000  1  1  1  mag  0.0
0.467116000000  0.532612000000  0.965145000000  1  1  1  mag  0.0
0.716868000000  0.532616000000  0.965135000000  1  1  1  mag  0.0
0.050752000000  0.599877000000  0.047122000000  1  1  1  mag  0.0
0.296483000000  0.599348000000  0.052236000000  1  1  1  mag  0.0
0.547715000000  0.598857000000  0.053129000000  1  1  1  mag  0.0
0.799924000000  0.599343000000  0.052102000000  1  1  1  mag  0.0
0.050872000000  0.599358000000  0.294477000000  1  1  1  mag  0.0
0.303346000000  0.598895000000  0.295045000000  1  1  1  mag  0.0
0.550150000000  0.598900000000  0.294981000000  1  1  1  mag  0.0
0.803219000000  0.599374000000  0.294298000000  1  1  1  mag  0.0
0.063716000000  0.600734000000  0.537540000000  1  1  1  mag  0.0
0.301484000000  0.599042000000  0.545547000000  1  1  1  mag  0.0
0.547199000000  0.600754000000  0.537408000000  1  1  1  mag  0.0
0.800543000000  0.611284000000  0.546903000000  1  1  1  mag  0.0
0.051750000000  0.600469000000  0.798296000000  1  1  1  mag  0.0
0.298573000000  0.600489000000  0.798239000000  1  1  1  mag  0.0
0.540635000000  0.602451000000  0.813254000000  1  1  1  mag  0.0
0.794748000000  0.602499000000  0.812935000000  1  1  1  mag  0.0

N 
0.000
2
0.603968000000  0.636757000000  0.642834000000  1  1  1  mag  0.0
0.901349000000  0.636710000000  0.642565000000  1  1  1  mag  0.0
