ATOMIC_SPECIES
C   12.011        C_ONCV_PBE-1.0.upf
O   15.999        O_ONCV_PBE-1.0.upf
Pt  195.084       Pt_ONCV_PBE-1.0.upf

NUMERICAL_ORBITAL
C_gga_7au_100Ry_2s2p1d.orb
O_gga_7au_100Ry_2s2p1d.orb
Pt_gga_7au_100Ry_4s2p2d1f.orb

LATTICE_CONSTANT
1.8897261258369282 

LATTICE_VECTORS
11.187400000      0.0000000000      0.0000000000      
0.0000000000      18.850900000      0.0000000000      
-5.593700000      0.0000000000      9.6885700000      

ATOMIC_POSITIONS
Direct

C
0.0000000000
1
0.3852820000 0.4000440000 0.7015490000 1 1 1 v 0.0 0.0 0.0 mag 0.0 

O
0.0000000000
1
0.4007770000 0.4325090000 0.4582480000 1 1 1 v 0.0 0.0 0.0 mag 0.0 

Pt
0.0000000000
64
0.0445520000 0.0000000000 0.0222760000 0 0 0 v 0.0 0.0 0.0 mag 0.0 
0.2945520000 0.0000000000 0.0222760000 0 0 0 v 0.0 0.0 0.0 mag 0.0 
0.5445520000 0.0000000000 0.0222760000 0 0 0 v 0.0 0.0 0.0 mag 0.0 
0.7945520000 0.0000000000 0.0222760000 0 0 0 v 0.0 0.0 0.0 mag 0.0 
0.0445520000 0.0000000000 0.2722760000 0 0 0 v 0.0 0.0 0.0 mag 0.0 
0.2945520000 0.0000000000 0.2722760000 0 0 0 v 0.0 0.0 0.0 mag 0.0 
0.5445520000 0.0000000000 0.2722760000 0 0 0 v 0.0 0.0 0.0 mag 0.0 
0.7945520000 0.0000000000 0.2722760000 0 0 0 v 0.0 0.0 0.0 mag 0.0 
0.2945520000 0.0000000000 0.5222760000 0 0 0 v 0.0 0.0 0.0 mag 0.0 
0.5445520000 0.0000000000 0.5222760000 0 0 0 v 0.0 0.0 0.0 mag 0.0 
0.7945520000 0.0000000000 0.5222760000 0 0 0 v 0.0 0.0 0.0 mag 0.0 
0.0445520000 0.0000000000 0.5222760000 0 0 0 v 0.0 0.0 0.0 mag 0.0 
0.0445520000 0.0000000000 0.7722760000 0 0 0 v 0.0 0.0 0.0 mag 0.0 
0.2945520000 0.0000000000 0.7722760000 0 0 0 v 0.0 0.0 0.0 mag 0.0 
0.5445520000 0.0000000000 0.7722760000 0 0 0 v 0.0 0.0 0.0 mag 0.0 
0.7945520000 0.0000000000 0.7722760000 0 0 0 v 0.0 0.0 0.0 mag 0.0 
0.8784020000 0.1201490000 0.1888940000 1 1 1 v 0.0 0.0 0.0 mag 0.0 
0.8778930000 0.1205930000 0.4386150000 1 1 1 v 0.0 0.0 0.0 mag 0.0 
0.8791570000 0.1201780000 0.9387660000 1 1 1 v 0.0 0.0 0.0 mag 0.0 
0.6274390000 0.1205490000 0.1882960000 1 1 1 v 0.0 0.0 0.0 mag 0.0 
0.3786220000 0.1204310000 0.1896520000 1 1 1 v 0.0 0.0 0.0 mag 0.0 
0.1294100000 0.1205740000 0.1892720000 1 1 1 v 0.0 0.0 0.0 mag 0.0 
0.8776220000 0.1211680000 0.6877930000 1 1 1 v 0.0 0.0 0.0 mag 0.0 
0.1284990000 0.1211400000 0.9387970000 1 1 1 v 0.0 0.0 0.0 mag 0.0 
0.6274020000 0.1214400000 0.4393770000 1 1 1 v 0.0 0.0 0.0 mag 0.0 
0.3774960000 0.1210410000 0.9379040000 1 1 1 v 0.0 0.0 0.0 mag 0.0 
0.1294460000 0.1208220000 0.4398250000 1 1 1 v 0.0 0.0 0.0 mag 0.0 
0.6274660000 0.1206810000 0.9375380000 1 1 1 v 0.0 0.0 0.0 mag 0.0 
0.6278880000 0.1215680000 0.6886760000 1 1 1 v 0.0 0.0 0.0 mag 0.0 
0.1286310000 0.1215870000 0.6886670000 1 1 1 v 0.0 0.0 0.0 mag 0.0 
0.3783350000 0.1218400000 0.4397510000 1 1 1 v 0.0 0.0 0.0 mag 0.0 
0.3778720000 0.1228660000 0.6883190000 1 1 1 v 0.0 0.0 0.0 mag 0.0 
0.9624900000 0.2381790000 0.8552070000 1 1 1 v 0.0 0.0 0.0 mag 0.0 
0.9625430000 0.2376840000 0.1054650000 1 1 1 v 0.0 0.0 0.0 mag 0.0 
0.9614170000 0.2380550000 0.3556950000 1 1 1 v 0.0 0.0 0.0 mag 0.0 
0.4614460000 0.2386870000 0.1061680000 1 1 1 v 0.0 0.0 0.0 mag 0.0 
0.7116840000 0.2384410000 0.1055830000 1 1 1 v 0.0 0.0 0.0 mag 0.0 
0.7113480000 0.2391120000 0.3562300000 1 1 1 v 0.0 0.0 0.0 mag 0.0 
0.9607860000 0.2391050000 0.6050630000 1 1 1 v 0.0 0.0 0.0 mag 0.0 
0.2141150000 0.2398210000 0.1087610000 1 1 1 v 0.0 0.0 0.0 mag 0.0 
0.4618380000 0.2408010000 0.3581010000 1 1 1 v 0.0 0.0 0.0 mag 0.0 
0.2121320000 0.2405130000 0.8541630000 1 1 1 v 0.0 0.0 0.0 mag 0.0 
0.7121280000 0.2395030000 0.8560790000 1 1 1 v 0.0 0.0 0.0 mag 0.0 
0.7082550000 0.2424120000 0.6048110000 1 1 1 v 0.0 0.0 0.0 mag 0.0 
0.2122250000 0.2407350000 0.3577350000 1 1 1 v 0.0 0.0 0.0 mag 0.0 
0.4611740000 0.2414310000 0.8553790000 1 1 1 v 0.0 0.0 0.0 mag 0.0 
0.4621940000 0.2431040000 0.6067260000 1 1 1 v 0.0 0.0 0.0 mag 0.0 
0.2136370000 0.2435800000 0.6048610000 1 1 1 v 0.0 0.0 0.0 mag 0.0 
0.0400830000 0.3584710000 0.2693210000 1 1 1 v 0.0 0.0 0.0 mag 0.0 
0.5469270000 0.3592880000 0.2746790000 1 1 1 v 0.0 0.0 0.0 mag 0.0 
0.0387940000 0.3589260000 0.5201260000 1 1 1 v 0.0 0.0 0.0 mag 0.0 
0.5484070000 0.3589750000 0.0294040000 1 1 1 v 0.0 0.0 0.0 mag 0.0 
0.0457500000 0.3594860000 0.0229830000 1 1 1 v 0.0 0.0 0.0 mag 0.0 
0.7946770000 0.3596990000 0.2737200000 1 1 1 v 0.0 0.0 0.0 mag 0.0 
0.2960370000 0.3604970000 0.0268200000 1 1 1 v 0.0 0.0 0.0 mag 0.0 
0.8050480000 0.3608930000 0.7800450000 1 1 1 v 0.0 0.0 0.0 mag 0.0 
0.8008550000 0.3596680000 0.0289140000 1 1 1 v 0.0 0.0 0.0 mag 0.0 
0.7975380000 0.3610990000 0.5237090000 1 1 1 v 0.0 0.0 0.0 mag 0.0 
0.0424970000 0.3603970000 0.7730800000 1 1 1 v 0.0 0.0 0.0 mag 0.0 
0.2933910000 0.3618140000 0.2669730000 1 1 1 v 0.0 0.0 0.0 mag 0.0 
0.5633660000 0.3669370000 0.5348360000 1 1 1 v 0.0 0.0 0.0 mag 0.0 
0.5665690000 0.3634110000 0.7876100000 1 1 1 v 0.0 0.0 0.0 mag 0.0 
0.2861260000 0.3666610000 0.7851680000 1 1 1 v 0.0 0.0 0.0 mag 0.0 
0.2839470000 0.3686010000 0.5126820000 1 1 1 v 0.0 0.0 0.0 mag 0.0 

