ATOMIC_SPECIES
Cu  63.546        Cu_ONCV_PBE-1.0.upf
N   14.007        N_ONCV_PBE-1.0.upf

NUMERICAL_ORBITAL
Cu_gga_8au_100Ry_4s2p2d1f.orb
N_gga_7au_100Ry_2s2p1d.orb

LATTICE_CONSTANT
1.8897261258369282 

LATTICE_VECTORS
10.210600000      0.0000000000      0.0000000000      
0.0000000000      30.252700000      0.0000000000      
5.1053100000      0.0000000000      8.8426600000      

ATOMIC_POSITIONS
Direct

Cu
0.0000000000
64
0.0500000000 0.3966590000 0.0500000000 0 0 0 v 0.0 0.0 0.0 mag 0.0 
0.3000000000 0.3966590000 0.0500000000 0 0 0 v 0.0 0.0 0.0 mag 0.0 
0.5500000000 0.3966590000 0.0500000000 0 0 0 v 0.0 0.0 0.0 mag 0.0 
0.8000000000 0.3966590000 0.0500000000 0 0 0 v 0.0 0.0 0.0 mag 0.0 
0.0500000000 0.3966590000 0.3000000000 0 0 0 v 0.0 0.0 0.0 mag 0.0 
0.3000000000 0.3966590000 0.3000000000 0 0 0 v 0.0 0.0 0.0 mag 0.0 
0.5500000000 0.3966590000 0.3000000000 0 0 0 v 0.0 0.0 0.0 mag 0.0 
0.8000000000 0.3966590000 0.3000000000 0 0 0 v 0.0 0.0 0.0 mag 0.0 
0.0500000000 0.3966590000 0.5500000000 0 0 0 v 0.0 0.0 0.0 mag 0.0 
0.3000000000 0.3966590000 0.5500000000 0 0 0 v 0.0 0.0 0.0 mag 0.0 
0.5500000000 0.3966590000 0.5500000000 0 0 0 v 0.0 0.0 0.0 mag 0.0 
0.8000000000 0.3966590000 0.5500000000 0 0 0 v 0.0 0.0 0.0 mag 0.0 
0.0500000000 0.3966590000 0.8000000000 0 0 0 v 0.0 0.0 0.0 mag 0.0 
0.3000000000 0.3966590000 0.8000000000 0 0 0 v 0.0 0.0 0.0 mag 0.0 
0.5500000000 0.3966590000 0.8000000000 0 0 0 v 0.0 0.0 0.0 mag 0.0 
0.8000000000 0.3966590000 0.8000000000 0 0 0 v 0.0 0.0 0.0 mag 0.0 
0.1333330000 0.4655530000 0.1333330000 0 0 0 v 0.0 0.0 0.0 mag 0.0 
0.3833330000 0.4655530000 0.1333330000 0 0 0 v 0.0 0.0 0.0 mag 0.0 
0.6333330000 0.4655530000 0.1333330000 0 0 0 v 0.0 0.0 0.0 mag 0.0 
0.8833330000 0.4655530000 0.1333330000 0 0 0 v 0.0 0.0 0.0 mag 0.0 
0.1333330000 0.4655530000 0.3833330000 0 0 0 v 0.0 0.0 0.0 mag 0.0 
0.3833330000 0.4655530000 0.3833330000 0 0 0 v 0.0 0.0 0.0 mag 0.0 
0.6333330000 0.4655530000 0.3833330000 0 0 0 v 0.0 0.0 0.0 mag 0.0 
0.8833330000 0.4655530000 0.3833330000 0 0 0 v 0.0 0.0 0.0 mag 0.0 
0.1333330000 0.4655530000 0.6333330000 0 0 0 v 0.0 0.0 0.0 mag 0.0 
0.3833330000 0.4655530000 0.6333330000 0 0 0 v 0.0 0.0 0.0 mag 0.0 
0.6333330000 0.4655530000 0.6333330000 0 0 0 v 0.0 0.0 0.0 mag 0.0 
0.8833330000 0.4655530000 0.6333330000 0 0 0 v 0.0 0.0 0.0 mag 0.0 
0.1333330000 0.4655530000 0.8833330000 0 0 0 v 0.0 0.0 0.0 mag 0.0 
0.3833330000 0.4655530000 0.8833330000 0 0 0 v 0.0 0.0 0.0 mag 0.0 
0.6333330000 0.4655530000 0.8833330000 0 0 0 v 0.0 0.0 0.0 mag 0.0 
0.8833330000 0.4655530000 0.8833330000 0 0 0 v 0.0 0.0 0.0 mag 0.0 
0.9659990000 0.5323840000 0.2173210000 1 1 1 v 0.0 0.0 0.0 mag 0.0 
0.2181930000 0.5320220000 0.2168130000 1 1 1 v 0.0 0.0 0.0 mag 0.0 
0.4649030000 0.5317570000 0.2195220000 1 1 1 v 0.0 0.0 0.0 mag 0.0 
0.7142910000 0.5320200000 0.2168440000 1 1 1 v 0.0 0.0 0.0 mag 0.0 
0.9671630000 0.5328950000 0.4660030000 1 1 1 v 0.0 0.0 0.0 mag 0.0 
0.2141350000 0.5330030000 0.4688520000 1 1 1 v 0.0 0.0 0.0 mag 0.0 
0.4662870000 0.5330050000 0.4688760000 1 1 1 v 0.0 0.0 0.0 mag 0.0 
0.7161510000 0.5328770000 0.4660210000 1 1 1 v 0.0 0.0 0.0 mag 0.0 
0.9648940000 0.5334460000 0.7166870000 1 1 1 v 0.0 0.0 0.0 mag 0.0 
0.2159800000 0.5325590000 0.7173760000 1 1 1 v 0.0 0.0 0.0 mag 0.0 
0.4677190000 0.5334480000 0.7167290000 1 1 1 v 0.0 0.0 0.0 mag 0.0 
0.7172130000 0.5335910000 0.7149370000 1 1 1 v 0.0 0.0 0.0 mag 0.0 
0.9660170000 0.5324710000 0.9667660000 1 1 1 v 0.0 0.0 0.0 mag 0.0 
0.2165380000 0.5324740000 0.9667800000 1 1 1 v 0.0 0.0 0.0 mag 0.0 
0.4677970000 0.5326800000 0.9655440000 1 1 1 v 0.0 0.0 0.0 mag 0.0 
0.7159730000 0.5326810000 0.9655600000 1 1 1 v 0.0 0.0 0.0 mag 0.0 
0.0504990000 0.6000560000 0.0478430000 1 1 1 v 0.0 0.0 0.0 mag 0.0 
0.2986500000 0.5993340000 0.0521220000 1 1 1 v 0.0 0.0 0.0 mag 0.0 
0.5452940000 0.5990500000 0.0582080000 1 1 1 v 0.0 0.0 0.0 mag 0.0 
0.7980990000 0.5993300000 0.0521060000 1 1 1 v 0.0 0.0 0.0 mag 0.0 
0.0558770000 0.5990530000 0.2914790000 1 1 1 v 0.0 0.0 0.0 mag 0.0 
0.2993260000 0.5996010000 0.3018090000 1 1 1 v 0.0 0.0 0.0 mag 0.0 
0.5476670000 0.5996010000 0.3017680000 1 1 1 v 0.0 0.0 0.0 mag 0.0 
0.8014830000 0.5990490000 0.2914600000 1 1 1 v 0.0 0.0 0.0 mag 0.0 
0.0538460000 0.6033030000 0.5463390000 1 1 1 v 0.0 0.0 0.0 mag 0.0 
0.2990390000 0.5999790000 0.5506510000 1 1 1 v 0.0 0.0 0.0 mag 0.0 
0.5485590000 0.6032730000 0.5462680000 1 1 1 v 0.0 0.0 0.0 mag 0.0 
0.8082340000 0.6032000000 0.5321600000 1 1 1 v 0.0 0.0 0.0 mag 0.0 
0.0505990000 0.5999480000 0.8008480000 1 1 1 v 0.0 0.0 0.0 mag 0.0 
0.2973720000 0.5999570000 0.8008320000 1 1 1 v 0.0 0.0 0.0 mag 0.0 
0.5428500000 0.6026250000 0.8135770000 1 1 1 v 0.0 0.0 0.0 mag 0.0 
0.7923280000 0.6026240000 0.8136310000 1 1 1 v 0.0 0.0 0.0 mag 0.0 

N
0.0000000000
2
0.6288120000 0.6367600000 0.6410320000 1 1 1 v 0.0 0.0 0.0 mag 0.0 
0.8786480000 0.6367460000 0.6410870000 1 1 1 v 0.0 0.0 0.0 mag 0.0 

