ATOMIC_SPECIES
H   1.008         H_ONCV_PBE-1.0.upf
Au  196.966569    Au_ONCV_PBE-1.0.upf

NUMERICAL_ORBITAL
H_gga_6au_100Ry_2s1p.orb
Au_gga_7au_100Ry_4s2p2d1f.orb

LATTICE_CONSTANT
1.8897261258369282 

LATTICE_VECTORS
11.535200000      0.0000000000      0.0000000000      
0.0000000000      19.063800000      0.0000000000      
-5.767600000      0.0000000000      9.9897700000      

ATOMIC_POSITIONS
Direct

H
0.0000000000
2
0.5165960000 0.5356470000 0.6621070000 1 1 1 v 0.0 0.0 0.0 mag 0.0 
0.4198570000 0.5356270000 0.5646450000 1 1 1 v 0.0 0.0 0.0 mag 0.0 

Au
0.0000000000
64
0.0400000000 0.1000000000 0.0400000000 0 0 0 v 0.0 0.0 0.0 mag 0.0 
0.2900000000 0.1000000000 0.0400000000 0 0 0 v 0.0 0.0 0.0 mag 0.0 
0.5400000000 0.1000000000 0.0400000000 0 0 0 v 0.0 0.0 0.0 mag 0.0 
0.7900000000 0.1000000000 0.0400000000 0 0 0 v 0.0 0.0 0.0 mag 0.0 
0.0400000000 0.1000000000 0.2900000000 0 0 0 v 0.0 0.0 0.0 mag 0.0 
0.2900000000 0.1000000000 0.2900000000 0 0 0 v 0.0 0.0 0.0 mag 0.0 
0.5400000000 0.1000000000 0.2900000000 0 0 0 v 0.0 0.0 0.0 mag 0.0 
0.7900000000 0.1000000000 0.2900000000 0 0 0 v 0.0 0.0 0.0 mag 0.0 
0.0400000000 0.1000000000 0.5400000000 0 0 0 v 0.0 0.0 0.0 mag 0.0 
0.2900000000 0.1000000000 0.5400000000 0 0 0 v 0.0 0.0 0.0 mag 0.0 
0.5400000000 0.1000000000 0.5400000000 0 0 0 v 0.0 0.0 0.0 mag 0.0 
0.7900000000 0.1000000000 0.5400000000 0 0 0 v 0.0 0.0 0.0 mag 0.0 
0.0400000000 0.1000000000 0.7900000000 0 0 0 v 0.0 0.0 0.0 mag 0.0 
0.2900000000 0.1000000000 0.7900000000 0 0 0 v 0.0 0.0 0.0 mag 0.0 
0.5400000000 0.1000000000 0.7900000000 0 0 0 v 0.0 0.0 0.0 mag 0.0 
0.7900000000 0.1000000000 0.7900000000 0 0 0 v 0.0 0.0 0.0 mag 0.0 
0.1233330000 0.2235120000 0.2066670000 0 0 0 v 0.0 0.0 0.0 mag 0.0 
0.3733330000 0.2235120000 0.2066670000 0 0 0 v 0.0 0.0 0.0 mag 0.0 
0.6233330000 0.2235120000 0.2066670000 0 0 0 v 0.0 0.0 0.0 mag 0.0 
0.8733330000 0.2235120000 0.2066670000 0 0 0 v 0.0 0.0 0.0 mag 0.0 
0.1233330000 0.2235120000 0.4566670000 0 0 0 v 0.0 0.0 0.0 mag 0.0 
0.3733330000 0.2235120000 0.4566670000 0 0 0 v 0.0 0.0 0.0 mag 0.0 
0.6233330000 0.2235120000 0.4566670000 0 0 0 v 0.0 0.0 0.0 mag 0.0 
0.8733330000 0.2235120000 0.4566670000 0 0 0 v 0.0 0.0 0.0 mag 0.0 
0.1233330000 0.2235120000 0.7066670000 0 0 0 v 0.0 0.0 0.0 mag 0.0 
0.3733330000 0.2235120000 0.7066670000 0 0 0 v 0.0 0.0 0.0 mag 0.0 
0.6233330000 0.2235120000 0.7066670000 0 0 0 v 0.0 0.0 0.0 mag 0.0 
0.8733330000 0.2235120000 0.7066670000 0 0 0 v 0.0 0.0 0.0 mag 0.0 
0.1233330000 0.2235120000 0.9566670000 0 0 0 v 0.0 0.0 0.0 mag 0.0 
0.3733330000 0.2235120000 0.9566670000 0 0 0 v 0.0 0.0 0.0 mag 0.0 
0.6233330000 0.2235120000 0.9566670000 0 0 0 v 0.0 0.0 0.0 mag 0.0 
0.8733330000 0.2235120000 0.9566670000 0 0 0 v 0.0 0.0 0.0 mag 0.0 
0.2072430000 0.3462210000 0.1227730000 1 1 1 v 0.0 0.0 0.0 mag 0.0 
0.4572480000 0.3466130000 0.1235290000 1 1 1 v 0.0 0.0 0.0 mag 0.0 
0.7065810000 0.3473540000 0.1237660000 1 1 1 v 0.0 0.0 0.0 mag 0.0 
0.9565250000 0.3471180000 0.1236800000 1 1 1 v 0.0 0.0 0.0 mag 0.0 
0.2064800000 0.3473580000 0.3721330000 1 1 1 v 0.0 0.0 0.0 mag 0.0 
0.4564430000 0.3488850000 0.3758190000 1 1 1 v 0.0 0.0 0.0 mag 0.0 
0.7060900000 0.3468120000 0.3740150000 1 1 1 v 0.0 0.0 0.0 mag 0.0 
0.9563950000 0.3473330000 0.3735740000 1 1 1 v 0.0 0.0 0.0 mag 0.0 
0.2085060000 0.3481240000 0.6228700000 1 1 1 v 0.0 0.0 0.0 mag 0.0 
0.4566770000 0.3486800000 0.6235170000 1 1 1 v 0.0 0.0 0.0 mag 0.0 
0.7042740000 0.3489270000 0.6236550000 1 1 1 v 0.0 0.0 0.0 mag 0.0 
0.9566150000 0.3466130000 0.6228580000 1 1 1 v 0.0 0.0 0.0 mag 0.0 
0.2073650000 0.3461850000 0.8727840000 1 1 1 v 0.0 0.0 0.0 mag 0.0 
0.4573080000 0.3481410000 0.8717010000 1 1 1 v 0.0 0.0 0.0 mag 0.0 
0.7080020000 0.3473650000 0.8736760000 1 1 1 v 0.0 0.0 0.0 mag 0.0 
0.9573530000 0.3461990000 0.8728980000 1 1 1 v 0.0 0.0 0.0 mag 0.0 
0.0414750000 0.4743070000 0.0387840000 1 1 1 v 0.0 0.0 0.0 mag 0.0 
0.2902400000 0.4736940000 0.0385390000 1 1 1 v 0.0 0.0 0.0 mag 0.0 
0.5401800000 0.4742770000 0.0434800000 1 1 1 v 0.0 0.0 0.0 mag 0.0 
0.7941850000 0.4751940000 0.0444390000 1 1 1 v 0.0 0.0 0.0 mag 0.0 
0.0359810000 0.4752250000 0.2862310000 1 1 1 v 0.0 0.0 0.0 mag 0.0 
0.2865120000 0.4742860000 0.2845730000 1 1 1 v 0.0 0.0 0.0 mag 0.0 
0.5392480000 0.4742780000 0.2896610000 1 1 1 v 0.0 0.0 0.0 mag 0.0 
0.7891400000 0.4738400000 0.2911970000 1 1 1 v 0.0 0.0 0.0 mag 0.0 
0.0369440000 0.4742620000 0.5400720000 1 1 1 v 0.0 0.0 0.0 mag 0.0 
0.2776080000 0.4759020000 0.5308620000 1 1 1 v 0.0 0.0 0.0 mag 0.0 
0.5431120000 0.4803940000 0.5366970000 1 1 1 v 0.0 0.0 0.0 mag 0.0 
0.7905190000 0.4742560000 0.5409810000 1 1 1 v 0.0 0.0 0.0 mag 0.0 
0.0415810000 0.4736660000 0.7898650000 1 1 1 v 0.0 0.0 0.0 mag 0.0 
0.2909940000 0.4741570000 0.7892800000 1 1 1 v 0.0 0.0 0.0 mag 0.0 
0.5494980000 0.4759600000 0.8029800000 1 1 1 v 0.0 0.0 0.0 mag 0.0 
0.7956040000 0.4742130000 0.7937260000 1 1 1 v 0.0 0.0 0.0 mag 0.0 

