ATOMIC_SPECIES
H   1.008         H_ONCV_PBE-1.0.upf
Au  196.966569    Au_ONCV_PBE-1.0.upf

NUMERICAL_ORBITAL
H_gga_6au_100Ry_2s1p.orb
Au_gga_7au_100Ry_4s2p2d1f.orb

LATTICE_CONSTANT
1.8897261258369282 

LATTICE_VECTORS
11.535200000      0.0000000000      0.0000000000      
0.0000000000      19.063800000      0.0000000000      
-5.767600000      0.0000000000      9.9897700000      

ATOMIC_POSITIONS
Direct

H
0.0000000000
2
0.5591420000 0.5321200000 0.6897020000 1 1 1 v 0.0 0.0 0.0 mag 0.0 
0.3912670000 0.5322300000 0.5218570000 1 1 1 v 0.0 0.0 0.0 mag 0.0 

Au
0.0000000000
64
0.0400000000 0.1000000000 0.0400000000 0 0 0 v 0.0 0.0 0.0 mag 0.0 
0.2900000000 0.1000000000 0.0400000000 0 0 0 v 0.0 0.0 0.0 mag 0.0 
0.5400000000 0.1000000000 0.0400000000 0 0 0 v 0.0 0.0 0.0 mag 0.0 
0.7900000000 0.1000000000 0.0400000000 0 0 0 v 0.0 0.0 0.0 mag 0.0 
0.0400000000 0.1000000000 0.2900000000 0 0 0 v 0.0 0.0 0.0 mag 0.0 
0.2900000000 0.1000000000 0.2900000000 0 0 0 v 0.0 0.0 0.0 mag 0.0 
0.5400000000 0.1000000000 0.2900000000 0 0 0 v 0.0 0.0 0.0 mag 0.0 
0.7900000000 0.1000000000 0.2900000000 0 0 0 v 0.0 0.0 0.0 mag 0.0 
0.0400000000 0.1000000000 0.5400000000 0 0 0 v 0.0 0.0 0.0 mag 0.0 
0.2900000000 0.1000000000 0.5400000000 0 0 0 v 0.0 0.0 0.0 mag 0.0 
0.5400000000 0.1000000000 0.5400000000 0 0 0 v 0.0 0.0 0.0 mag 0.0 
0.7900000000 0.1000000000 0.5400000000 0 0 0 v 0.0 0.0 0.0 mag 0.0 
0.0400000000 0.1000000000 0.7900000000 0 0 0 v 0.0 0.0 0.0 mag 0.0 
0.2900000000 0.1000000000 0.7900000000 0 0 0 v 0.0 0.0 0.0 mag 0.0 
0.5400000000 0.1000000000 0.7900000000 0 0 0 v 0.0 0.0 0.0 mag 0.0 
0.7900000000 0.1000000000 0.7900000000 0 0 0 v 0.0 0.0 0.0 mag 0.0 
0.1233330000 0.2235120000 0.2066670000 0 0 0 v 0.0 0.0 0.0 mag 0.0 
0.3733330000 0.2235120000 0.2066670000 0 0 0 v 0.0 0.0 0.0 mag 0.0 
0.6233330000 0.2235120000 0.2066670000 0 0 0 v 0.0 0.0 0.0 mag 0.0 
0.8733330000 0.2235120000 0.2066670000 0 0 0 v 0.0 0.0 0.0 mag 0.0 
0.1233330000 0.2235120000 0.4566670000 0 0 0 v 0.0 0.0 0.0 mag 0.0 
0.3733330000 0.2235120000 0.4566670000 0 0 0 v 0.0 0.0 0.0 mag 0.0 
0.6233330000 0.2235120000 0.4566670000 0 0 0 v 0.0 0.0 0.0 mag 0.0 
0.8733330000 0.2235120000 0.4566670000 0 0 0 v 0.0 0.0 0.0 mag 0.0 
0.1233330000 0.2235120000 0.7066670000 0 0 0 v 0.0 0.0 0.0 mag 0.0 
0.3733330000 0.2235120000 0.7066670000 0 0 0 v 0.0 0.0 0.0 mag 0.0 
0.6233330000 0.2235120000 0.7066670000 0 0 0 v 0.0 0.0 0.0 mag 0.0 
0.8733330000 0.2235120000 0.7066670000 0 0 0 v 0.0 0.0 0.0 mag 0.0 
0.1233330000 0.2235120000 0.9566670000 0 0 0 v 0.0 0.0 0.0 mag 0.0 
0.3733330000 0.2235120000 0.9566670000 0 0 0 v 0.0 0.0 0.0 mag 0.0 
0.6233330000 0.2235120000 0.9566670000 0 0 0 v 0.0 0.0 0.0 mag 0.0 
0.8733330000 0.2235120000 0.9566670000 0 0 0 v 0.0 0.0 0.0 mag 0.0 
0.2081790000 0.3462160000 0.1240470000 1 1 1 v 0.0 0.0 0.0 mag 0.0 
0.4565640000 0.3464020000 0.1237750000 1 1 1 v 0.0 0.0 0.0 mag 0.0 
0.7064180000 0.3471830000 0.1237790000 1 1 1 v 0.0 0.0 0.0 mag 0.0 
0.9568340000 0.3471000000 0.1233350000 1 1 1 v 0.0 0.0 0.0 mag 0.0 
0.2061320000 0.3473220000 0.3721150000 1 1 1 v 0.0 0.0 0.0 mag 0.0 
0.4573230000 0.3492840000 0.3775780000 1 1 1 v 0.0 0.0 0.0 mag 0.0 
0.7063350000 0.3466870000 0.3738400000 1 1 1 v 0.0 0.0 0.0 mag 0.0 
0.9563860000 0.3471760000 0.3737400000 1 1 1 v 0.0 0.0 0.0 mag 0.0 
0.2084140000 0.3484560000 0.6221710000 1 1 1 v 0.0 0.0 0.0 mag 0.0 
0.4565920000 0.3482110000 0.6236310000 1 1 1 v 0.0 0.0 0.0 mag 0.0 
0.7025790000 0.3493150000 0.6228220000 1 1 1 v 0.0 0.0 0.0 mag 0.0 
0.9564370000 0.3464080000 0.6235830000 1 1 1 v 0.0 0.0 0.0 mag 0.0 
0.2072680000 0.3458550000 0.8728740000 1 1 1 v 0.0 0.0 0.0 mag 0.0 
0.4579490000 0.3484470000 0.8718240000 1 1 1 v 0.0 0.0 0.0 mag 0.0 
0.7080410000 0.3473010000 0.8740700000 1 1 1 v 0.0 0.0 0.0 mag 0.0 
0.9561140000 0.3462170000 0.8719620000 1 1 1 v 0.0 0.0 0.0 mag 0.0 
0.0412180000 0.4741540000 0.0390330000 1 1 1 v 0.0 0.0 0.0 mag 0.0 
0.2904430000 0.4734690000 0.0395270000 1 1 1 v 0.0 0.0 0.0 mag 0.0 
0.5401640000 0.4733320000 0.0442580000 1 1 1 v 0.0 0.0 0.0 mag 0.0 
0.7934380000 0.4742750000 0.0443320000 1 1 1 v 0.0 0.0 0.0 mag 0.0 
0.0361220000 0.4742660000 0.2869780000 1 1 1 v 0.0 0.0 0.0 mag 0.0 
0.2860970000 0.4743280000 0.2837870000 1 1 1 v 0.0 0.0 0.0 mag 0.0 
0.5393970000 0.4736920000 0.2926500000 1 1 1 v 0.0 0.0 0.0 mag 0.0 
0.7885840000 0.4739130000 0.2917610000 1 1 1 v 0.0 0.0 0.0 mag 0.0 
0.0361790000 0.4733330000 0.5400650000 1 1 1 v 0.0 0.0 0.0 mag 0.0 
0.2784840000 0.4766880000 0.5351030000 1 1 1 v 0.0 0.0 0.0 mag 0.0 
0.5396900000 0.4865920000 0.5405590000 1 1 1 v 0.0 0.0 0.0 mag 0.0 
0.7876920000 0.4736880000 0.5409040000 1 1 1 v 0.0 0.0 0.0 mag 0.0 
0.0406540000 0.4734440000 0.7896940000 1 1 1 v 0.0 0.0 0.0 mag 0.0 
0.2892810000 0.4735710000 0.7909770000 1 1 1 v 0.0 0.0 0.0 mag 0.0 
0.5452330000 0.4766270000 0.8020490000 1 1 1 v 0.0 0.0 0.0 mag 0.0 
0.7964230000 0.4743010000 0.7942180000 1 1 1 v 0.0 0.0 0.0 mag 0.0 

