ATOMIC_SPECIES
H   1.008         H_ONCV_PBE-1.0.upf
Au  196.966569    Au_ONCV_PBE-1.0.upf

NUMERICAL_ORBITAL
H_gga_6au_100Ry_2s1p.orb
Au_gga_7au_100Ry_4s2p2d1f.orb

LATTICE_CONSTANT
1.8897261258369282 

LATTICE_VECTORS
11.535200000      0.0000000000      0.0000000000      
0.0000000000      19.063800000      0.0000000000      
-5.767600000      0.0000000000      9.9897700000      

ATOMIC_POSITIONS
Direct

H
0.0000000000
2
0.5593760000 0.5318730000 0.6868340000 1 1 1 v 0.0 0.0 0.0 mag 0.0 
0.3944730000 0.5320270000 0.5224110000 1 1 1 v 0.0 0.0 0.0 mag 0.0 

Au
0.0000000000
64
0.0400000000 0.1000000000 0.0400000000 0 0 0 v 0.0 0.0 0.0 mag 0.0 
0.2900000000 0.1000000000 0.0400000000 0 0 0 v 0.0 0.0 0.0 mag 0.0 
0.5400000000 0.1000000000 0.0400000000 0 0 0 v 0.0 0.0 0.0 mag 0.0 
0.7900000000 0.1000000000 0.0400000000 0 0 0 v 0.0 0.0 0.0 mag 0.0 
0.0400000000 0.1000000000 0.2900000000 0 0 0 v 0.0 0.0 0.0 mag 0.0 
0.2900000000 0.1000000000 0.2900000000 0 0 0 v 0.0 0.0 0.0 mag 0.0 
0.5400000000 0.1000000000 0.2900000000 0 0 0 v 0.0 0.0 0.0 mag 0.0 
0.7900000000 0.1000000000 0.2900000000 0 0 0 v 0.0 0.0 0.0 mag 0.0 
0.0400000000 0.1000000000 0.5400000000 0 0 0 v 0.0 0.0 0.0 mag 0.0 
0.2900000000 0.1000000000 0.5400000000 0 0 0 v 0.0 0.0 0.0 mag 0.0 
0.5400000000 0.1000000000 0.5400000000 0 0 0 v 0.0 0.0 0.0 mag 0.0 
0.7900000000 0.1000000000 0.5400000000 0 0 0 v 0.0 0.0 0.0 mag 0.0 
0.0400000000 0.1000000000 0.7900000000 0 0 0 v 0.0 0.0 0.0 mag 0.0 
0.2900000000 0.1000000000 0.7900000000 0 0 0 v 0.0 0.0 0.0 mag 0.0 
0.5400000000 0.1000000000 0.7900000000 0 0 0 v 0.0 0.0 0.0 mag 0.0 
0.7900000000 0.1000000000 0.7900000000 0 0 0 v 0.0 0.0 0.0 mag 0.0 
0.1233330000 0.2235120000 0.2066670000 0 0 0 v 0.0 0.0 0.0 mag 0.0 
0.3733330000 0.2235120000 0.2066670000 0 0 0 v 0.0 0.0 0.0 mag 0.0 
0.6233330000 0.2235120000 0.2066670000 0 0 0 v 0.0 0.0 0.0 mag 0.0 
0.8733330000 0.2235120000 0.2066670000 0 0 0 v 0.0 0.0 0.0 mag 0.0 
0.1233330000 0.2235120000 0.4566670000 0 0 0 v 0.0 0.0 0.0 mag 0.0 
0.3733330000 0.2235120000 0.4566670000 0 0 0 v 0.0 0.0 0.0 mag 0.0 
0.6233330000 0.2235120000 0.4566670000 0 0 0 v 0.0 0.0 0.0 mag 0.0 
0.8733330000 0.2235120000 0.4566670000 0 0 0 v 0.0 0.0 0.0 mag 0.0 
0.1233330000 0.2235120000 0.7066670000 0 0 0 v 0.0 0.0 0.0 mag 0.0 
0.3733330000 0.2235120000 0.7066670000 0 0 0 v 0.0 0.0 0.0 mag 0.0 
0.6233330000 0.2235120000 0.7066670000 0 0 0 v 0.0 0.0 0.0 mag 0.0 
0.8733330000 0.2235120000 0.7066670000 0 0 0 v 0.0 0.0 0.0 mag 0.0 
0.1233330000 0.2235120000 0.9566670000 0 0 0 v 0.0 0.0 0.0 mag 0.0 
0.3733330000 0.2235120000 0.9566670000 0 0 0 v 0.0 0.0 0.0 mag 0.0 
0.6233330000 0.2235120000 0.9566670000 0 0 0 v 0.0 0.0 0.0 mag 0.0 
0.8733330000 0.2235120000 0.9566670000 0 0 0 v 0.0 0.0 0.0 mag 0.0 
0.2081900000 0.3464040000 0.1240940000 1 1 1 v 0.0 0.0 0.0 mag 0.0 
0.4566570000 0.3464650000 0.1237100000 1 1 1 v 0.0 0.0 0.0 mag 0.0 
0.7063430000 0.3472950000 0.1237280000 1 1 1 v 0.0 0.0 0.0 mag 0.0 
0.9567240000 0.3471970000 0.1234450000 1 1 1 v 0.0 0.0 0.0 mag 0.0 
0.2062290000 0.3474230000 0.3721400000 1 1 1 v 0.0 0.0 0.0 mag 0.0 
0.4572380000 0.3495320000 0.3774190000 1 1 1 v 0.0 0.0 0.0 mag 0.0 
0.7061800000 0.3469630000 0.3739510000 1 1 1 v 0.0 0.0 0.0 mag 0.0 
0.9564670000 0.3472950000 0.3738550000 1 1 1 v 0.0 0.0 0.0 mag 0.0 
0.2085160000 0.3484490000 0.6223820000 1 1 1 v 0.0 0.0 0.0 mag 0.0 
0.4566520000 0.3485960000 0.6235740000 1 1 1 v 0.0 0.0 0.0 mag 0.0 
0.7027520000 0.3495540000 0.6229150000 1 1 1 v 0.0 0.0 0.0 mag 0.0 
0.9564470000 0.3464720000 0.6234860000 1 1 1 v 0.0 0.0 0.0 mag 0.0 
0.2072430000 0.3460320000 0.8729250000 1 1 1 v 0.0 0.0 0.0 mag 0.0 
0.4578260000 0.3484470000 0.8717010000 1 1 1 v 0.0 0.0 0.0 mag 0.0 
0.7080320000 0.3474320000 0.8739340000 1 1 1 v 0.0 0.0 0.0 mag 0.0 
0.9560440000 0.3464200000 0.8719540000 1 1 1 v 0.0 0.0 0.0 mag 0.0 
0.0411460000 0.4741320000 0.0391690000 1 1 1 v 0.0 0.0 0.0 mag 0.0 
0.2903540000 0.4734820000 0.0393360000 1 1 1 v 0.0 0.0 0.0 mag 0.0 
0.5399320000 0.4735920000 0.0435630000 1 1 1 v 0.0 0.0 0.0 mag 0.0 
0.7933540000 0.4745250000 0.0441450000 1 1 1 v 0.0 0.0 0.0 mag 0.0 
0.0362610000 0.4745300000 0.2870550000 1 1 1 v 0.0 0.0 0.0 mag 0.0 
0.2860320000 0.4748680000 0.2839060000 1 1 1 v 0.0 0.0 0.0 mag 0.0 
0.5391770000 0.4739030000 0.2917020000 1 1 1 v 0.0 0.0 0.0 mag 0.0 
0.7886990000 0.4737340000 0.2916130000 1 1 1 v 0.0 0.0 0.0 mag 0.0 
0.0368670000 0.4735810000 0.5403190000 1 1 1 v 0.0 0.0 0.0 mag 0.0 
0.2790860000 0.4769240000 0.5349260000 1 1 1 v 0.0 0.0 0.0 mag 0.0 
0.5407900000 0.4866820000 0.5394210000 1 1 1 v 0.0 0.0 0.0 mag 0.0 
0.7885270000 0.4738900000 0.5410420000 1 1 1 v 0.0 0.0 0.0 mag 0.0 
0.0408400000 0.4734730000 0.7898000000 1 1 1 v 0.0 0.0 0.0 mag 0.0 
0.2896000000 0.4741110000 0.7906540000 1 1 1 v 0.0 0.0 0.0 mag 0.0 
0.5454120000 0.4769780000 0.8014880000 1 1 1 v 0.0 0.0 0.0 mag 0.0 
0.7963580000 0.4749010000 0.7942870000 1 1 1 v 0.0 0.0 0.0 mag 0.0 

