ATOMIC_SPECIES
H   1.008         H_ONCV_PBE-1.0.upf
Au  196.966569    Au_ONCV_PBE-1.0.upf

NUMERICAL_ORBITAL
H_gga_6au_100Ry_2s1p.orb
Au_gga_7au_100Ry_4s2p2d1f.orb

LATTICE_CONSTANT
1.8897261258369282 

LATTICE_VECTORS
11.535200000      0.0000000000      0.0000000000      
0.0000000000      19.063800000      0.0000000000      
-5.767600000      0.0000000000      9.9897700000      

ATOMIC_POSITIONS
Direct

H
0.0000000000
2
0.5011430000 0.5746000000 0.6470650000 1 1 1 v 0.0 0.0 0.0 mag 0.0 
0.4351730000 0.5746570000 0.5803600000 1 1 1 v 0.0 0.0 0.0 mag 0.0 

Au
0.0000000000
64
0.0400000000 0.1000000000 0.0400000000 0 0 0 v 0.0 0.0 0.0 mag 0.0 
0.2900000000 0.1000000000 0.0400000000 0 0 0 v 0.0 0.0 0.0 mag 0.0 
0.5400000000 0.1000000000 0.0400000000 0 0 0 v 0.0 0.0 0.0 mag 0.0 
0.7900000000 0.1000000000 0.0400000000 0 0 0 v 0.0 0.0 0.0 mag 0.0 
0.0400000000 0.1000000000 0.2900000000 0 0 0 v 0.0 0.0 0.0 mag 0.0 
0.2900000000 0.1000000000 0.2900000000 0 0 0 v 0.0 0.0 0.0 mag 0.0 
0.5400000000 0.1000000000 0.2900000000 0 0 0 v 0.0 0.0 0.0 mag 0.0 
0.7900000000 0.1000000000 0.2900000000 0 0 0 v 0.0 0.0 0.0 mag 0.0 
0.0400000000 0.1000000000 0.5400000000 0 0 0 v 0.0 0.0 0.0 mag 0.0 
0.2900000000 0.1000000000 0.5400000000 0 0 0 v 0.0 0.0 0.0 mag 0.0 
0.5400000000 0.1000000000 0.5400000000 0 0 0 v 0.0 0.0 0.0 mag 0.0 
0.7900000000 0.1000000000 0.5400000000 0 0 0 v 0.0 0.0 0.0 mag 0.0 
0.0400000000 0.1000000000 0.7900000000 0 0 0 v 0.0 0.0 0.0 mag 0.0 
0.2900000000 0.1000000000 0.7900000000 0 0 0 v 0.0 0.0 0.0 mag 0.0 
0.5400000000 0.1000000000 0.7900000000 0 0 0 v 0.0 0.0 0.0 mag 0.0 
0.7900000000 0.1000000000 0.7900000000 0 0 0 v 0.0 0.0 0.0 mag 0.0 
0.1233330000 0.2235120000 0.2066670000 0 0 0 v 0.0 0.0 0.0 mag 0.0 
0.3733330000 0.2235120000 0.2066670000 0 0 0 v 0.0 0.0 0.0 mag 0.0 
0.6233330000 0.2235120000 0.2066670000 0 0 0 v 0.0 0.0 0.0 mag 0.0 
0.8733330000 0.2235120000 0.2066670000 0 0 0 v 0.0 0.0 0.0 mag 0.0 
0.1233330000 0.2235120000 0.4566670000 0 0 0 v 0.0 0.0 0.0 mag 0.0 
0.3733330000 0.2235120000 0.4566670000 0 0 0 v 0.0 0.0 0.0 mag 0.0 
0.6233330000 0.2235120000 0.4566670000 0 0 0 v 0.0 0.0 0.0 mag 0.0 
0.8733330000 0.2235120000 0.4566670000 0 0 0 v 0.0 0.0 0.0 mag 0.0 
0.1233330000 0.2235120000 0.7066670000 0 0 0 v 0.0 0.0 0.0 mag 0.0 
0.3733330000 0.2235120000 0.7066670000 0 0 0 v 0.0 0.0 0.0 mag 0.0 
0.6233330000 0.2235120000 0.7066670000 0 0 0 v 0.0 0.0 0.0 mag 0.0 
0.8733330000 0.2235120000 0.7066670000 0 0 0 v 0.0 0.0 0.0 mag 0.0 
0.1233330000 0.2235120000 0.9566670000 0 0 0 v 0.0 0.0 0.0 mag 0.0 
0.3733330000 0.2235120000 0.9566670000 0 0 0 v 0.0 0.0 0.0 mag 0.0 
0.6233330000 0.2235120000 0.9566670000 0 0 0 v 0.0 0.0 0.0 mag 0.0 
0.8733330000 0.2235120000 0.9566670000 0 0 0 v 0.0 0.0 0.0 mag 0.0 
0.2062120000 0.3472070000 0.1213560000 1 1 1 v 0.0 0.0 0.0 mag 0.0 
0.4577300000 0.3474510000 0.1237020000 1 1 1 v 0.0 0.0 0.0 mag 0.0 
0.7067790000 0.3475220000 0.1236070000 1 1 1 v 0.0 0.0 0.0 mag 0.0 
0.9564100000 0.3476340000 0.1237340000 1 1 1 v 0.0 0.0 0.0 mag 0.0 
0.2054020000 0.3464480000 0.3705920000 1 1 1 v 0.0 0.0 0.0 mag 0.0 
0.4550930000 0.3466120000 0.3715200000 1 1 1 v 0.0 0.0 0.0 mag 0.0 
0.7063860000 0.3473080000 0.3737430000 1 1 1 v 0.0 0.0 0.0 mag 0.0 
0.9565360000 0.3474990000 0.3733600000 1 1 1 v 0.0 0.0 0.0 mag 0.0 
0.2061430000 0.3464640000 0.6241140000 1 1 1 v 0.0 0.0 0.0 mag 0.0 
0.4565800000 0.3464510000 0.6235790000 1 1 1 v 0.0 0.0 0.0 mag 0.0 
0.7085900000 0.3466320000 0.6250180000 1 1 1 v 0.0 0.0 0.0 mag 0.0 
0.9564390000 0.3474460000 0.6224000000 1 1 1 v 0.0 0.0 0.0 mag 0.0 
0.2065950000 0.3473490000 0.8735400000 1 1 1 v 0.0 0.0 0.0 mag 0.0 
0.4560220000 0.3464570000 0.8740390000 1 1 1 v 0.0 0.0 0.0 mag 0.0 
0.7095480000 0.3464400000 0.8747420000 1 1 1 v 0.0 0.0 0.0 mag 0.0 
0.9587620000 0.3471930000 0.8739180000 1 1 1 v 0.0 0.0 0.0 mag 0.0 
0.0409680000 0.4754670000 0.0393020000 1 1 1 v 0.0 0.0 0.0 mag 0.0 
0.2901230000 0.4752930000 0.0389850000 1 1 1 v 0.0 0.0 0.0 mag 0.0 
0.5403690000 0.4752960000 0.0420630000 1 1 1 v 0.0 0.0 0.0 mag 0.0 
0.7924890000 0.4755900000 0.0422080000 1 1 1 v 0.0 0.0 0.0 mag 0.0 
0.0381110000 0.4755740000 0.2878570000 1 1 1 v 0.0 0.0 0.0 mag 0.0 
0.2890200000 0.4739080000 0.2883180000 1 1 1 v 0.0 0.0 0.0 mag 0.0 
0.5396570000 0.4751620000 0.2887080000 1 1 1 v 0.0 0.0 0.0 mag 0.0 
0.7898080000 0.4747780000 0.2904750000 1 1 1 v 0.0 0.0 0.0 mag 0.0 
0.0382420000 0.4752590000 0.5398860000 1 1 1 v 0.0 0.0 0.0 mag 0.0 
0.2826450000 0.4690320000 0.5355730000 1 1 1 v 0.0 0.0 0.0 mag 0.0 
0.5430790000 0.4685900000 0.5370170000 1 1 1 v 0.0 0.0 0.0 mag 0.0 
0.7915610000 0.4751620000 0.5406260000 1 1 1 v 0.0 0.0 0.0 mag 0.0 
0.0412750000 0.4752690000 0.7901320000 1 1 1 v 0.0 0.0 0.0 mag 0.0 
0.2909830000 0.4740920000 0.7892540000 1 1 1 v 0.0 0.0 0.0 mag 0.0 
0.5447250000 0.4689930000 0.7977410000 1 1 1 v 0.0 0.0 0.0 mag 0.0 
0.7919060000 0.4738770000 0.7912050000 1 1 1 v 0.0 0.0 0.0 mag 0.0 

