ATOMIC_SPECIES
H   1.008         H_ONCV_PBE-1.0.upf
Au  196.966569    Au_ONCV_PBE-1.0.upf

NUMERICAL_ORBITAL
H_gga_6au_100Ry_2s1p.orb
Au_gga_7au_100Ry_4s2p2d1f.orb

LATTICE_CONSTANT
1.8897261258369282 

LATTICE_VECTORS
11.535200000      0.0000000000      0.0000000000      
0.0000000000      19.063800000      0.0000000000      
-5.767600000      0.0000000000      9.9897700000      

ATOMIC_POSITIONS
Direct

H
0.0000000000
2
0.5153790000 0.5340990000 0.6601330000 1 1 1 v 0.0 0.0 0.0 mag 0.0 
0.4199440000 0.5341270000 0.5647540000 1 1 1 v 0.0 0.0 0.0 mag 0.0 

Au
0.0000000000
64
0.0400000000 0.1000000000 0.0400000000 0 0 0 v 0.0 0.0 0.0 mag 0.0 
0.2900000000 0.1000000000 0.0400000000 0 0 0 v 0.0 0.0 0.0 mag 0.0 
0.5400000000 0.1000000000 0.0400000000 0 0 0 v 0.0 0.0 0.0 mag 0.0 
0.7900000000 0.1000000000 0.0400000000 0 0 0 v 0.0 0.0 0.0 mag 0.0 
0.0400000000 0.1000000000 0.2900000000 0 0 0 v 0.0 0.0 0.0 mag 0.0 
0.2900000000 0.1000000000 0.2900000000 0 0 0 v 0.0 0.0 0.0 mag 0.0 
0.5400000000 0.1000000000 0.2900000000 0 0 0 v 0.0 0.0 0.0 mag 0.0 
0.7900000000 0.1000000000 0.2900000000 0 0 0 v 0.0 0.0 0.0 mag 0.0 
0.0400000000 0.1000000000 0.5400000000 0 0 0 v 0.0 0.0 0.0 mag 0.0 
0.2900000000 0.1000000000 0.5400000000 0 0 0 v 0.0 0.0 0.0 mag 0.0 
0.5400000000 0.1000000000 0.5400000000 0 0 0 v 0.0 0.0 0.0 mag 0.0 
0.7900000000 0.1000000000 0.5400000000 0 0 0 v 0.0 0.0 0.0 mag 0.0 
0.0400000000 0.1000000000 0.7900000000 0 0 0 v 0.0 0.0 0.0 mag 0.0 
0.2900000000 0.1000000000 0.7900000000 0 0 0 v 0.0 0.0 0.0 mag 0.0 
0.5400000000 0.1000000000 0.7900000000 0 0 0 v 0.0 0.0 0.0 mag 0.0 
0.7900000000 0.1000000000 0.7900000000 0 0 0 v 0.0 0.0 0.0 mag 0.0 
0.1233330000 0.2235120000 0.2066670000 0 0 0 v 0.0 0.0 0.0 mag 0.0 
0.3733330000 0.2235120000 0.2066670000 0 0 0 v 0.0 0.0 0.0 mag 0.0 
0.6233330000 0.2235120000 0.2066670000 0 0 0 v 0.0 0.0 0.0 mag 0.0 
0.8733330000 0.2235120000 0.2066670000 0 0 0 v 0.0 0.0 0.0 mag 0.0 
0.1233330000 0.2235120000 0.4566670000 0 0 0 v 0.0 0.0 0.0 mag 0.0 
0.3733330000 0.2235120000 0.4566670000 0 0 0 v 0.0 0.0 0.0 mag 0.0 
0.6233330000 0.2235120000 0.4566670000 0 0 0 v 0.0 0.0 0.0 mag 0.0 
0.8733330000 0.2235120000 0.4566670000 0 0 0 v 0.0 0.0 0.0 mag 0.0 
0.1233330000 0.2235120000 0.7066670000 0 0 0 v 0.0 0.0 0.0 mag 0.0 
0.3733330000 0.2235120000 0.7066670000 0 0 0 v 0.0 0.0 0.0 mag 0.0 
0.6233330000 0.2235120000 0.7066670000 0 0 0 v 0.0 0.0 0.0 mag 0.0 
0.8733330000 0.2235120000 0.7066670000 0 0 0 v 0.0 0.0 0.0 mag 0.0 
0.1233330000 0.2235120000 0.9566670000 0 0 0 v 0.0 0.0 0.0 mag 0.0 
0.3733330000 0.2235120000 0.9566670000 0 0 0 v 0.0 0.0 0.0 mag 0.0 
0.6233330000 0.2235120000 0.9566670000 0 0 0 v 0.0 0.0 0.0 mag 0.0 
0.8733330000 0.2235120000 0.9566670000 0 0 0 v 0.0 0.0 0.0 mag 0.0 
0.2067130000 0.3461660000 0.1234520000 1 1 1 v 0.0 0.0 0.0 mag 0.0 
0.4565250000 0.3465400000 0.1238530000 1 1 1 v 0.0 0.0 0.0 mag 0.0 
0.7059130000 0.3473560000 0.1242460000 1 1 1 v 0.0 0.0 0.0 mag 0.0 
0.9558750000 0.3470260000 0.1240950000 1 1 1 v 0.0 0.0 0.0 mag 0.0 
0.2058880000 0.3473360000 0.3727880000 1 1 1 v 0.0 0.0 0.0 mag 0.0 
0.4558100000 0.3488100000 0.3763590000 1 1 1 v 0.0 0.0 0.0 mag 0.0 
0.7055460000 0.3467860000 0.3744180000 1 1 1 v 0.0 0.0 0.0 mag 0.0 
0.9557080000 0.3473660000 0.3740490000 1 1 1 v 0.0 0.0 0.0 mag 0.0 
0.2078200000 0.3480570000 0.6234550000 1 1 1 v 0.0 0.0 0.0 mag 0.0 
0.4559270000 0.3491710000 0.6239850000 1 1 1 v 0.0 0.0 0.0 mag 0.0 
0.7035910000 0.3488250000 0.6241330000 1 1 1 v 0.0 0.0 0.0 mag 0.0 
0.9561120000 0.3465450000 0.6234350000 1 1 1 v 0.0 0.0 0.0 mag 0.0 
0.2065340000 0.3461810000 0.8734300000 1 1 1 v 0.0 0.0 0.0 mag 0.0 
0.4564720000 0.3480480000 0.8721010000 1 1 1 v 0.0 0.0 0.0 mag 0.0 
0.7071370000 0.3473320000 0.8740370000 1 1 1 v 0.0 0.0 0.0 mag 0.0 
0.9564960000 0.3461680000 0.8732520000 1 1 1 v 0.0 0.0 0.0 mag 0.0 
0.0400540000 0.4741880000 0.0398200000 1 1 1 v 0.0 0.0 0.0 mag 0.0 
0.2888280000 0.4736170000 0.0395140000 1 1 1 v 0.0 0.0 0.0 mag 0.0 
0.5386650000 0.4743190000 0.0443480000 1 1 1 v 0.0 0.0 0.0 mag 0.0 
0.7928960000 0.4750860000 0.0451390000 1 1 1 v 0.0 0.0 0.0 mag 0.0 
0.0347590000 0.4751060000 0.2870020000 1 1 1 v 0.0 0.0 0.0 mag 0.0 
0.2853400000 0.4742590000 0.2856360000 1 1 1 v 0.0 0.0 0.0 mag 0.0 
0.5380520000 0.4741700000 0.2899850000 1 1 1 v 0.0 0.0 0.0 mag 0.0 
0.7879720000 0.4738590000 0.2918720000 1 1 1 v 0.0 0.0 0.0 mag 0.0 
0.0355170000 0.4743460000 0.5411510000 1 1 1 v 0.0 0.0 0.0 mag 0.0 
0.2754140000 0.4758410000 0.5318700000 1 1 1 v 0.0 0.0 0.0 mag 0.0 
0.5430010000 0.4801530000 0.5367620000 1 1 1 v 0.0 0.0 0.0 mag 0.0 
0.7898350000 0.4741700000 0.5417860000 1 1 1 v 0.0 0.0 0.0 mag 0.0 
0.0402940000 0.4736150000 0.7909730000 1 1 1 v 0.0 0.0 0.0 mag 0.0 
0.2895650000 0.4742070000 0.7902470000 1 1 1 v 0.0 0.0 0.0 mag 0.0 
0.5480150000 0.4758300000 0.8045300000 1 1 1 v 0.0 0.0 0.0 mag 0.0 
0.7942120000 0.4742470000 0.7945370000 1 1 1 v 0.0 0.0 0.0 mag 0.0 

