ATOMIC_SPECIES
C   12.011        C_ONCV_PBE-1.0.upf
Pt  195.084       Pt_ONCV_PBE-1.0.upf
H   1.008         H_ONCV_PBE-1.0.upf

NUMERICAL_ORBITAL
C_gga_7au_100Ry_2s2p1d.orb
Pt_gga_7au_100Ry_4s2p2d1f.orb
H_gga_6au_100Ry_2s1p.orb

LATTICE_CONSTANT
1.889726

LATTICE_VECTORS
12.322696000      0.0000000000      0.0000000000      
0.0000000000      19.999994000      0.0000000000      
-6.161540000      0.0000000000      10.671542000      

ATOMIC_POSITIONS
Direct

C
0.0000000000
54
0.0321140000 0.4959060000 0.0307090000 1 1 1 mag 0.0 
0.1663180000 0.4952370000 0.0996890000 1 1 1 mag 0.0 
0.2343430000 0.4948860000 0.0348340000 1 1 1 mag 0.0 
0.3683240000 0.4968410000 0.1035630000 1 1 1 mag 0.0 
0.4334510000 0.4938130000 0.0347350000 1 1 1 mag 0.0 
0.5664760000 0.4944580000 0.0994400000 1 1 1 mag 0.0 
0.6316820000 0.4927390000 0.0305390000 1 1 1 mag 0.0 
0.7647120000 0.4934170000 0.0950590000 1 1 1 mag 0.0 
0.8300360000 0.4963180000 0.0266000000 1 1 1 mag 0.0 
0.9640660000 0.4942680000 0.0953530000 1 1 1 mag 0.0 
0.0305390000 0.4892790000 0.2287560000 1 1 1 mag 0.0 
0.1634890000 0.4889400000 0.2969120000 1 1 1 mag 0.0 
0.2328270000 0.4941060000 0.2334430000 1 1 1 mag 0.0 
0.3672950000 0.4999710000 0.3038300000 1 1 1 mag 0.0 
0.4353820000 0.5029740000 0.2372000000 1 1 1 mag 0.0 
0.5704940000 0.5071520000 0.3027140000 1 1 1 mag 0.0 
0.6343640000 0.4983240000 0.2330390000 1 1 1 mag 0.0 
0.7670870000 0.4941050000 0.2966330000 1 1 1 mag 0.0 
0.8321070000 0.4908160000 0.2286200000 1 1 1 mag 0.0 
0.9646310000 0.4866970000 0.2958280000 1 1 1 mag 0.0 
0.0311310000 0.4822160000 0.4298460000 1 1 1 mag 0.0 
0.1629230000 0.4800800000 0.4981180000 1 1 1 mag 0.0 
0.2277710000 0.4846270000 0.4304490000 1 1 1 mag 0.0 
0.3583020000 0.4902770000 0.4984020000 1 1 1 mag 0.0 
0.4254260000 0.5045710000 0.4361900000 1 1 1 mag 0.0 
0.6442270000 0.5162060000 0.4335830000 1 1 1 mag 0.0 
0.7740890000 0.5068890000 0.4971930000 1 1 1 mag 0.0 
0.8358040000 0.4940770000 0.4296890000 1 1 1 mag 0.0 
0.9670670000 0.4851860000 0.4976620000 1 1 1 mag 0.0 
0.0339210000 0.4854610000 0.6317270000 1 1 1 mag 0.0 
0.1657230000 0.4816000000 0.7000060000 1 1 1 mag 0.0 
0.2298040000 0.4792590000 0.6320850000 1 1 1 mag 0.0 
0.3624190000 0.4830480000 0.7002250000 1 1 1 mag 0.0 
0.4260410000 0.4905650000 0.6331850000 1 1 1 mag 0.0 
0.5553120000 0.5039070000 0.6931790000 1 1 1 mag 0.0 
0.7728700000 0.5177550000 0.6943600000 1 1 1 mag 0.0 
0.8405070000 0.5062990000 0.6319250000 1 1 1 mag 0.0 
0.9700530000 0.4942600000 0.6995100000 1 1 1 mag 0.0 
0.0346280000 0.4947130000 0.8329000000 1 1 1 mag 0.0 
0.1675790000 0.4912130000 0.9011650000 1 1 1 mag 0.0 
0.2330980000 0.4859410000 0.8341500000 1 1 1 mag 0.0 
0.3660310000 0.4876240000 0.9014460000 1 1 1 mag 0.0 
0.4311810000 0.4864400000 0.8334030000 1 1 1 mag 0.0 
0.5639970000 0.4920290000 0.8966310000 1 1 1 mag 0.0 
0.6274790000 0.4995620000 0.8256410000 1 1 1 mag 0.0 
0.7629860000 0.5020930000 0.8930000000 1 1 1 mag 0.0 
0.8310210000 0.5062330000 0.8263600000 1 1 1 mag 0.0 
0.9655940000 0.4992660000 0.8966790000 1 1 1 mag 0.0 
0.6096660000 0.6735080000 0.5934110000 1 1 1 mag 0.0 
0.7444750000 0.6954740000 0.6657950000 1 1 1 mag 0.0 
0.7477400000 0.7718130000 0.6880110000 1 1 1 mag 0.0 
0.6754870000 0.7904500000 0.7547300000 1 1 1 mag 0.0 
0.5409640000 0.7640840000 0.6830240000 1 1 1 mag 0.0 
0.5381170000 0.6872120000 0.6612220000 1 1 1 mag 0.0 

Pt
0.0000000000
1
0.5930760000 0.5433960000 0.5606390000 1 1 1 mag 0.0 

H
0.0000000000
12
0.4914800000 0.7754120000 0.7343570000 1 1 1 mag 0.0 
0.5598880000 0.6971700000 0.4996390000 1 1 1 mag 0.0 
0.7957030000 0.6836420000 0.6164450000 1 1 1 mag 0.0 
0.7933070000 0.6701100000 0.7573230000 1 1 1 mag 0.0 
0.8455930000 0.7884190000 0.7426510000 1 1 1 mag 0.0 
0.7064420000 0.7980370000 0.5972350000 1 1 1 mag 0.0 
0.6757810000 0.8451040000 0.7662990000 1 1 1 mag 0.0 
0.7235290000 0.7690560000 0.8499190000 1 1 1 mag 0.0 
0.4893710000 0.7901450000 0.5921850000 1 1 1 mag 0.0 
0.4399850000 0.6704680000 0.6082230000 1 1 1 mag 0.0 
0.5821400000 0.6624580000 0.7533670000 1 1 1 mag 0.0 
0.5971700000 0.6042810000 0.4807580000 1 1 1 mag 0.0 

