ATOMIC_SPECIES
Cu  63.546        Cu_ONCV_PBE-1.0.upf
N   14.007        N_ONCV_PBE-1.0.upf

NUMERICAL_ORBITAL
Cu_gga_8au_100Ry_4s2p2d1f.orb
N_gga_7au_100Ry_2s2p1d.orb

LATTICE_CONSTANT
1.8897261258369282 

LATTICE_VECTORS
10.210600000      0.0000000000      0.0000000000      
0.0000000000      30.252700000      0.0000000000      
5.1053100000      0.0000000000      8.8426600000      

ATOMIC_POSITIONS
Direct

Cu
0.0000000000
64
0.0500000000 0.3966590000 0.0500000000 0 0 0 v 0.0 0.0 0.0 mag 0.0 
0.3000000000 0.3966590000 0.0500000000 0 0 0 v 0.0 0.0 0.0 mag 0.0 
0.5500000000 0.3966590000 0.0500000000 0 0 0 v 0.0 0.0 0.0 mag 0.0 
0.8000000000 0.3966590000 0.0500000000 0 0 0 v 0.0 0.0 0.0 mag 0.0 
0.0500000000 0.3966590000 0.3000000000 0 0 0 v 0.0 0.0 0.0 mag 0.0 
0.3000000000 0.3966590000 0.3000000000 0 0 0 v 0.0 0.0 0.0 mag 0.0 
0.5500000000 0.3966590000 0.3000000000 0 0 0 v 0.0 0.0 0.0 mag 0.0 
0.8000000000 0.3966590000 0.3000000000 0 0 0 v 0.0 0.0 0.0 mag 0.0 
0.0500000000 0.3966590000 0.5500000000 0 0 0 v 0.0 0.0 0.0 mag 0.0 
0.3000000000 0.3966590000 0.5500000000 0 0 0 v 0.0 0.0 0.0 mag 0.0 
0.5500000000 0.3966590000 0.5500000000 0 0 0 v 0.0 0.0 0.0 mag 0.0 
0.8000000000 0.3966590000 0.5500000000 0 0 0 v 0.0 0.0 0.0 mag 0.0 
0.0500000000 0.3966590000 0.8000000000 0 0 0 v 0.0 0.0 0.0 mag 0.0 
0.3000000000 0.3966590000 0.8000000000 0 0 0 v 0.0 0.0 0.0 mag 0.0 
0.5500000000 0.3966590000 0.8000000000 0 0 0 v 0.0 0.0 0.0 mag 0.0 
0.8000000000 0.3966590000 0.8000000000 0 0 0 v 0.0 0.0 0.0 mag 0.0 
0.1333330000 0.4655530000 0.1333330000 0 0 0 v 0.0 0.0 0.0 mag 0.0 
0.3833330000 0.4655530000 0.1333330000 0 0 0 v 0.0 0.0 0.0 mag 0.0 
0.6333330000 0.4655530000 0.1333330000 0 0 0 v 0.0 0.0 0.0 mag 0.0 
0.8833330000 0.4655530000 0.1333330000 0 0 0 v 0.0 0.0 0.0 mag 0.0 
0.1333330000 0.4655530000 0.3833330000 0 0 0 v 0.0 0.0 0.0 mag 0.0 
0.3833330000 0.4655530000 0.3833330000 0 0 0 v 0.0 0.0 0.0 mag 0.0 
0.6333330000 0.4655530000 0.3833330000 0 0 0 v 0.0 0.0 0.0 mag 0.0 
0.8833330000 0.4655530000 0.3833330000 0 0 0 v 0.0 0.0 0.0 mag 0.0 
0.1333330000 0.4655530000 0.6333330000 0 0 0 v 0.0 0.0 0.0 mag 0.0 
0.3833330000 0.4655530000 0.6333330000 0 0 0 v 0.0 0.0 0.0 mag 0.0 
0.6333330000 0.4655530000 0.6333330000 0 0 0 v 0.0 0.0 0.0 mag 0.0 
0.8833330000 0.4655530000 0.6333330000 0 0 0 v 0.0 0.0 0.0 mag 0.0 
0.1333330000 0.4655530000 0.8833330000 0 0 0 v 0.0 0.0 0.0 mag 0.0 
0.3833330000 0.4655530000 0.8833330000 0 0 0 v 0.0 0.0 0.0 mag 0.0 
0.6333330000 0.4655530000 0.8833330000 0 0 0 v 0.0 0.0 0.0 mag 0.0 
0.8833330000 0.4655530000 0.8833330000 0 0 0 v 0.0 0.0 0.0 mag 0.0 
0.9666970000 0.5324560000 0.2165630000 1 1 1 v 0.0 0.0 0.0 mag 0.0 
0.2166980000 0.5324580000 0.2165210000 1 1 1 v 0.0 0.0 0.0 mag 0.0 
0.4666470000 0.5324640000 0.2166560000 1 1 1 v 0.0 0.0 0.0 mag 0.0 
0.7166950000 0.5324560000 0.2164740000 1 1 1 v 0.0 0.0 0.0 mag 0.0 
0.9671830000 0.5322910000 0.4662950000 1 1 1 v 0.0 0.0 0.0 mag 0.0 
0.2168260000 0.5324490000 0.4665110000 1 1 1 v 0.0 0.0 0.0 mag 0.0 
0.4665420000 0.5324190000 0.4664430000 1 1 1 v 0.0 0.0 0.0 mag 0.0 
0.7165190000 0.5323120000 0.4663660000 1 1 1 v 0.0 0.0 0.0 mag 0.0 
0.9668110000 0.5324130000 0.7165080000 1 1 1 v 0.0 0.0 0.0 mag 0.0 
0.2166190000 0.5324620000 0.7165880000 1 1 1 v 0.0 0.0 0.0 mag 0.0 
0.4665100000 0.5323430000 0.7164630000 1 1 1 v 0.0 0.0 0.0 mag 0.0 
0.7167010000 0.5322580000 0.7166920000 1 1 1 v 0.0 0.0 0.0 mag 0.0 
0.9666740000 0.5324920000 0.9665810000 1 1 1 v 0.0 0.0 0.0 mag 0.0 
0.2166610000 0.5324730000 0.9665990000 1 1 1 v 0.0 0.0 0.0 mag 0.0 
0.4664250000 0.5323120000 0.9670160000 1 1 1 v 0.0 0.0 0.0 mag 0.0 
0.7165990000 0.5324060000 0.9667350000 1 1 1 v 0.0 0.0 0.0 mag 0.0 
0.0499960000 0.5998600000 0.0498430000 1 1 1 v 0.0 0.0 0.0 mag 0.0 
0.3000270000 0.5998970000 0.0498580000 1 1 1 v 0.0 0.0 0.0 mag 0.0 
0.5500360000 0.5998430000 0.0497450000 1 1 1 v 0.0 0.0 0.0 mag 0.0 
0.7999660000 0.5998930000 0.0498060000 1 1 1 v 0.0 0.0 0.0 mag 0.0 
0.0500660000 0.5998770000 0.2997880000 1 1 1 v 0.0 0.0 0.0 mag 0.0 
0.3000400000 0.5998550000 0.2998150000 1 1 1 v 0.0 0.0 0.0 mag 0.0 
0.5500430000 0.5998750000 0.2998120000 1 1 1 v 0.0 0.0 0.0 mag 0.0 
0.8000110000 0.5998540000 0.2997860000 1 1 1 v 0.0 0.0 0.0 mag 0.0 
0.0500470000 0.5997950000 0.5497740000 1 1 1 v 0.0 0.0 0.0 mag 0.0 
0.3000170000 0.5998850000 0.5498390000 1 1 1 v 0.0 0.0 0.0 mag 0.0 
0.5499820000 0.5996630000 0.5497730000 1 1 1 v 0.0 0.0 0.0 mag 0.0 
0.8005040000 0.5990100000 0.5492930000 1 1 1 v 0.0 0.0 0.0 mag 0.0 
0.0500110000 0.5998800000 0.7997960000 1 1 1 v 0.0 0.0 0.0 mag 0.0 
0.3000010000 0.5998670000 0.7998270000 1 1 1 v 0.0 0.0 0.0 mag 0.0 
0.5495060000 0.5991810000 0.8003030000 1 1 1 v 0.0 0.0 0.0 mag 0.0 
0.8000890000 0.5996140000 0.7999570000 1 1 1 v 0.0 0.0 0.0 mag 0.0 

N
0.0000000000
2
0.6536570000 0.7032500000 0.6487970000 1 1 1 v 0.0 0.0 0.0 mag 0.0 
0.7435420000 0.7026050000 0.6786530000 1 1 1 v 0.0 0.0 0.0 mag 0.0 

