ATOMIC_SPECIES
Cu  63.546        Cu_ONCV_PBE-1.0.upf
N   14.007        N_ONCV_PBE-1.0.upf

NUMERICAL_ORBITAL
Cu_gga_8au_100Ry_4s2p2d1f.orb
N_gga_7au_100Ry_2s2p1d.orb

LATTICE_CONSTANT
1.8897261258369282 

LATTICE_VECTORS
10.210600000      0.0000000000      0.0000000000      
0.0000000000      30.252700000      0.0000000000      
5.1053100000      0.0000000000      8.8426600000      

ATOMIC_POSITIONS
Direct

Cu
0.0000000000
64
0.0500000000 0.3966590000 0.0500000000 0 0 0 v 0.0 0.0 0.0 mag 0.0 
0.3000000000 0.3966590000 0.0500000000 0 0 0 v 0.0 0.0 0.0 mag 0.0 
0.5500000000 0.3966590000 0.0500000000 0 0 0 v 0.0 0.0 0.0 mag 0.0 
0.8000000000 0.3966590000 0.0500000000 0 0 0 v 0.0 0.0 0.0 mag 0.0 
0.0500000000 0.3966590000 0.3000000000 0 0 0 v 0.0 0.0 0.0 mag 0.0 
0.3000000000 0.3966590000 0.3000000000 0 0 0 v 0.0 0.0 0.0 mag 0.0 
0.5500000000 0.3966590000 0.3000000000 0 0 0 v 0.0 0.0 0.0 mag 0.0 
0.8000000000 0.3966590000 0.3000000000 0 0 0 v 0.0 0.0 0.0 mag 0.0 
0.0500000000 0.3966590000 0.5500000000 0 0 0 v 0.0 0.0 0.0 mag 0.0 
0.3000000000 0.3966590000 0.5500000000 0 0 0 v 0.0 0.0 0.0 mag 0.0 
0.5500000000 0.3966590000 0.5500000000 0 0 0 v 0.0 0.0 0.0 mag 0.0 
0.8000000000 0.3966590000 0.5500000000 0 0 0 v 0.0 0.0 0.0 mag 0.0 
0.0500000000 0.3966590000 0.8000000000 0 0 0 v 0.0 0.0 0.0 mag 0.0 
0.3000000000 0.3966590000 0.8000000000 0 0 0 v 0.0 0.0 0.0 mag 0.0 
0.5500000000 0.3966590000 0.8000000000 0 0 0 v 0.0 0.0 0.0 mag 0.0 
0.8000000000 0.3966590000 0.8000000000 0 0 0 v 0.0 0.0 0.0 mag 0.0 
0.1333330000 0.4655530000 0.1333330000 0 0 0 v 0.0 0.0 0.0 mag 0.0 
0.3833330000 0.4655530000 0.1333330000 0 0 0 v 0.0 0.0 0.0 mag 0.0 
0.6333330000 0.4655530000 0.1333330000 0 0 0 v 0.0 0.0 0.0 mag 0.0 
0.8833330000 0.4655530000 0.1333330000 0 0 0 v 0.0 0.0 0.0 mag 0.0 
0.1333330000 0.4655530000 0.3833330000 0 0 0 v 0.0 0.0 0.0 mag 0.0 
0.3833330000 0.4655530000 0.3833330000 0 0 0 v 0.0 0.0 0.0 mag 0.0 
0.6333330000 0.4655530000 0.3833330000 0 0 0 v 0.0 0.0 0.0 mag 0.0 
0.8833330000 0.4655530000 0.3833330000 0 0 0 v 0.0 0.0 0.0 mag 0.0 
0.1333330000 0.4655530000 0.6333330000 0 0 0 v 0.0 0.0 0.0 mag 0.0 
0.3833330000 0.4655530000 0.6333330000 0 0 0 v 0.0 0.0 0.0 mag 0.0 
0.6333330000 0.4655530000 0.6333330000 0 0 0 v 0.0 0.0 0.0 mag 0.0 
0.8833330000 0.4655530000 0.6333330000 0 0 0 v 0.0 0.0 0.0 mag 0.0 
0.1333330000 0.4655530000 0.8833330000 0 0 0 v 0.0 0.0 0.0 mag 0.0 
0.3833330000 0.4655530000 0.8833330000 0 0 0 v 0.0 0.0 0.0 mag 0.0 
0.6333330000 0.4655530000 0.8833330000 0 0 0 v 0.0 0.0 0.0 mag 0.0 
0.8833330000 0.4655530000 0.8833330000 0 0 0 v 0.0 0.0 0.0 mag 0.0 
0.9666900000 0.5322000000 0.2160740000 1 1 1 v 0.0 0.0 0.0 mag 0.0 
0.2175060000 0.5320990000 0.2158640000 1 1 1 v 0.0 0.0 0.0 mag 0.0 
0.4662500000 0.5321240000 0.2169700000 1 1 1 v 0.0 0.0 0.0 mag 0.0 
0.7160930000 0.5321040000 0.2157770000 1 1 1 v 0.0 0.0 0.0 mag 0.0 
0.9685850000 0.5316640000 0.4652060000 1 1 1 v 0.0 0.0 0.0 mag 0.0 
0.2174490000 0.5320830000 0.4661960000 1 1 1 v 0.0 0.0 0.0 mag 0.0 
0.4658090000 0.5320950000 0.4661730000 1 1 1 v 0.0 0.0 0.0 mag 0.0 
0.7156140000 0.5316660000 0.4652080000 1 1 1 v 0.0 0.0 0.0 mag 0.0 
0.9669590000 0.5321150000 0.7159670000 1 1 1 v 0.0 0.0 0.0 mag 0.0 
0.2164010000 0.5322040000 0.7165710000 1 1 1 v 0.0 0.0 0.0 mag 0.0 
0.4664100000 0.5320590000 0.7159030000 1 1 1 v 0.0 0.0 0.0 mag 0.0 
0.7166550000 0.5320250000 0.7161460000 1 1 1 v 0.0 0.0 0.0 mag 0.0 
0.9663740000 0.5323230000 0.9665300000 1 1 1 v 0.0 0.0 0.0 mag 0.0 
0.2165150000 0.5323180000 0.9665610000 1 1 1 v 0.0 0.0 0.0 mag 0.0 
0.4665510000 0.5319900000 0.9669450000 1 1 1 v 0.0 0.0 0.0 mag 0.0 
0.7160410000 0.5320690000 0.9666870000 1 1 1 v 0.0 0.0 0.0 mag 0.0 
0.0500460000 0.5996010000 0.0488450000 1 1 1 v 0.0 0.0 0.0 mag 0.0 
0.2996860000 0.5996280000 0.0498440000 1 1 1 v 0.0 0.0 0.0 mag 0.0 
0.5492070000 0.5992790000 0.0506090000 1 1 1 v 0.0 0.0 0.0 mag 0.0 
0.7995110000 0.5996280000 0.0496690000 1 1 1 v 0.0 0.0 0.0 mag 0.0 
0.0522080000 0.5993130000 0.2966390000 1 1 1 v 0.0 0.0 0.0 mag 0.0 
0.3000590000 0.5995480000 0.2997180000 1 1 1 v 0.0 0.0 0.0 mag 0.0 
0.5493120000 0.5995490000 0.2997240000 1 1 1 v 0.0 0.0 0.0 mag 0.0 
0.8002030000 0.5992970000 0.2966280000 1 1 1 v 0.0 0.0 0.0 mag 0.0 
0.0516640000 0.5988080000 0.5481960000 1 1 1 v 0.0 0.0 0.0 mag 0.0 
0.2996350000 0.5996310000 0.5497530000 1 1 1 v 0.0 0.0 0.0 mag 0.0 
0.5491500000 0.5988240000 0.5483850000 1 1 1 v 0.0 0.0 0.0 mag 0.0 
0.8036630000 0.5964250000 0.5418310000 1 1 1 v 0.0 0.0 0.0 mag 0.0 
0.0504240000 0.5995220000 0.7995640000 1 1 1 v 0.0 0.0 0.0 mag 0.0 
0.2989330000 0.5995290000 0.7996190000 1 1 1 v 0.0 0.0 0.0 mag 0.0 
0.5456160000 0.5980540000 0.8021480000 1 1 1 v 0.0 0.0 0.0 mag 0.0 
0.8011750000 0.5983670000 0.8016350000 1 1 1 v 0.0 0.0 0.0 mag 0.0 

N
0.0000000000
2
0.6864490000 0.6735810000 0.6621960000 1 1 1 v 0.0 0.0 0.0 mag 0.0 
0.7915500000 0.6729350000 0.6697330000 1 1 1 v 0.0 0.0 0.0 mag 0.0 

