ATOMIC_SPECIES
Cu  63.546        Cu_ONCV_PBE-1.0.upf
N   14.007        N_ONCV_PBE-1.0.upf

NUMERICAL_ORBITAL
Cu_gga_8au_100Ry_4s2p2d1f.orb
N_gga_7au_100Ry_2s2p1d.orb

LATTICE_CONSTANT
1.8897261258369282 

LATTICE_VECTORS
10.210600000      0.0000000000      0.0000000000      
0.0000000000      30.252700000      0.0000000000      
5.1053100000      0.0000000000      8.8426600000      

ATOMIC_POSITIONS
Direct

Cu
0.0000000000
64
0.0500000000 0.3966590000 0.0500000000 0 0 0 v 0.0 0.0 0.0 mag 0.0 
0.3000000000 0.3966590000 0.0500000000 0 0 0 v 0.0 0.0 0.0 mag 0.0 
0.5500000000 0.3966590000 0.0500000000 0 0 0 v 0.0 0.0 0.0 mag 0.0 
0.8000000000 0.3966590000 0.0500000000 0 0 0 v 0.0 0.0 0.0 mag 0.0 
0.0500000000 0.3966590000 0.3000000000 0 0 0 v 0.0 0.0 0.0 mag 0.0 
0.3000000000 0.3966590000 0.3000000000 0 0 0 v 0.0 0.0 0.0 mag 0.0 
0.5500000000 0.3966590000 0.3000000000 0 0 0 v 0.0 0.0 0.0 mag 0.0 
0.8000000000 0.3966590000 0.3000000000 0 0 0 v 0.0 0.0 0.0 mag 0.0 
0.0500000000 0.3966590000 0.5500000000 0 0 0 v 0.0 0.0 0.0 mag 0.0 
0.3000000000 0.3966590000 0.5500000000 0 0 0 v 0.0 0.0 0.0 mag 0.0 
0.5500000000 0.3966590000 0.5500000000 0 0 0 v 0.0 0.0 0.0 mag 0.0 
0.8000000000 0.3966590000 0.5500000000 0 0 0 v 0.0 0.0 0.0 mag 0.0 
0.0500000000 0.3966590000 0.8000000000 0 0 0 v 0.0 0.0 0.0 mag 0.0 
0.3000000000 0.3966590000 0.8000000000 0 0 0 v 0.0 0.0 0.0 mag 0.0 
0.5500000000 0.3966590000 0.8000000000 0 0 0 v 0.0 0.0 0.0 mag 0.0 
0.8000000000 0.3966590000 0.8000000000 0 0 0 v 0.0 0.0 0.0 mag 0.0 
0.1333330000 0.4655530000 0.1333330000 0 0 0 v 0.0 0.0 0.0 mag 0.0 
0.3833330000 0.4655530000 0.1333330000 0 0 0 v 0.0 0.0 0.0 mag 0.0 
0.6333330000 0.4655530000 0.1333330000 0 0 0 v 0.0 0.0 0.0 mag 0.0 
0.8833330000 0.4655530000 0.1333330000 0 0 0 v 0.0 0.0 0.0 mag 0.0 
0.1333330000 0.4655530000 0.3833330000 0 0 0 v 0.0 0.0 0.0 mag 0.0 
0.3833330000 0.4655530000 0.3833330000 0 0 0 v 0.0 0.0 0.0 mag 0.0 
0.6333330000 0.4655530000 0.3833330000 0 0 0 v 0.0 0.0 0.0 mag 0.0 
0.8833330000 0.4655530000 0.3833330000 0 0 0 v 0.0 0.0 0.0 mag 0.0 
0.1333330000 0.4655530000 0.6333330000 0 0 0 v 0.0 0.0 0.0 mag 0.0 
0.3833330000 0.4655530000 0.6333330000 0 0 0 v 0.0 0.0 0.0 mag 0.0 
0.6333330000 0.4655530000 0.6333330000 0 0 0 v 0.0 0.0 0.0 mag 0.0 
0.8833330000 0.4655530000 0.6333330000 0 0 0 v 0.0 0.0 0.0 mag 0.0 
0.1333330000 0.4655530000 0.8833330000 0 0 0 v 0.0 0.0 0.0 mag 0.0 
0.3833330000 0.4655530000 0.8833330000 0 0 0 v 0.0 0.0 0.0 mag 0.0 
0.6333330000 0.4655530000 0.8833330000 0 0 0 v 0.0 0.0 0.0 mag 0.0 
0.8833330000 0.4655530000 0.8833330000 0 0 0 v 0.0 0.0 0.0 mag 0.0 
0.9666750000 0.5324220000 0.2164760000 1 1 1 v 0.0 0.0 0.0 mag 0.0 
0.2167250000 0.5324180000 0.2163870000 1 1 1 v 0.0 0.0 0.0 mag 0.0 
0.4666100000 0.5324360000 0.2166050000 1 1 1 v 0.0 0.0 0.0 mag 0.0 
0.7166810000 0.5324170000 0.2163220000 1 1 1 v 0.0 0.0 0.0 mag 0.0 
0.9673850000 0.5321770000 0.4660810000 1 1 1 v 0.0 0.0 0.0 mag 0.0 
0.2169460000 0.5323950000 0.4663590000 1 1 1 v 0.0 0.0 0.0 mag 0.0 
0.4664620000 0.5323710000 0.4662950000 1 1 1 v 0.0 0.0 0.0 mag 0.0 
0.7163800000 0.5321990000 0.4661390000 1 1 1 v 0.0 0.0 0.0 mag 0.0 
0.9668990000 0.5323320000 0.7163670000 1 1 1 v 0.0 0.0 0.0 mag 0.0 
0.2165960000 0.5324240000 0.7165000000 1 1 1 v 0.0 0.0 0.0 mag 0.0 
0.4664200000 0.5322620000 0.7163140000 1 1 1 v 0.0 0.0 0.0 mag 0.0 
0.7166460000 0.5321480000 0.7166470000 1 1 1 v 0.0 0.0 0.0 mag 0.0 
0.9666420000 0.5324790000 0.9664930000 1 1 1 v 0.0 0.0 0.0 mag 0.0 
0.2166480000 0.5324590000 0.9665150000 1 1 1 v 0.0 0.0 0.0 mag 0.0 
0.4663350000 0.5322300000 0.9670690000 1 1 1 v 0.0 0.0 0.0 mag 0.0 
0.7165080000 0.5323230000 0.9667770000 1 1 1 v 0.0 0.0 0.0 mag 0.0 
0.0499590000 0.5998100000 0.0496720000 1 1 1 v 0.0 0.0 0.0 mag 0.0 
0.2999710000 0.5998760000 0.0497440000 1 1 1 v 0.0 0.0 0.0 mag 0.0 
0.5500140000 0.5997800000 0.0495740000 1 1 1 v 0.0 0.0 0.0 mag 0.0 
0.7999150000 0.5998730000 0.0496460000 1 1 1 v 0.0 0.0 0.0 mag 0.0 
0.0501430000 0.5998340000 0.2995090000 1 1 1 v 0.0 0.0 0.0 mag 0.0 
0.3000400000 0.5998100000 0.2996370000 1 1 1 v 0.0 0.0 0.0 mag 0.0 
0.5500050000 0.5998290000 0.2996340000 1 1 1 v 0.0 0.0 0.0 mag 0.0 
0.7999940000 0.5998070000 0.2994870000 1 1 1 v 0.0 0.0 0.0 mag 0.0 
0.0501700000 0.5996410000 0.5495100000 1 1 1 v 0.0 0.0 0.0 mag 0.0 
0.2999870000 0.5998560000 0.5496690000 1 1 1 v 0.0 0.0 0.0 mag 0.0 
0.5499060000 0.5995440000 0.5495530000 1 1 1 v 0.0 0.0 0.0 mag 0.0 
0.8006790000 0.5985490000 0.5486790000 1 1 1 v 0.0 0.0 0.0 mag 0.0 
0.0500340000 0.5998390000 0.7996170000 1 1 1 v 0.0 0.0 0.0 mag 0.0 
0.2999100000 0.5998300000 0.7996580000 1 1 1 v 0.0 0.0 0.0 mag 0.0 
0.5491140000 0.5989080000 0.8003420000 1 1 1 v 0.0 0.0 0.0 mag 0.0 
0.8001840000 0.5993260000 0.7999610000 1 1 1 v 0.0 0.0 0.0 mag 0.0 

N
0.0000000000
2
0.6701590000 0.6980450000 0.6536900000 1 1 1 v 0.0 0.0 0.0 mag 0.0 
0.7651470000 0.6967880000 0.6761400000 1 1 1 v 0.0 0.0 0.0 mag 0.0 

