ATOMIC_SPECIES
C   12.011  C_ONCV_PBE-1.0.upf
Pt  195.085  Pt_ONCV_PBE-1.0.upf
H    1.008  H_ONCV_PBE-1.0.upf

NUMERICAL_ORBITAL
C_gga_7au_100Ry_2s2p1d.orb
Pt_gga_7au_100Ry_4s2p2d1f.orb
H_gga_6au_100Ry_2s1p.orb

LATTICE_CONSTANT
1.889726

LATTICE_VECTORS
12.32269689546  0.000000000000  0.000000000000
0.000000000000  19.99999569682  0.000000000000
-6.16154042858  0.000000000000  10.67154318512

ATOMIC_POSITIONS
Direct

C 
0.000
54
0.030656027500  0.494597115600  0.030648008400  1  1  1  mag  0.0
0.164666194500  0.494581573600  0.099764281800  1  1  1  mag  0.0
0.233333359200  0.493502485000  0.035602338400  1  1  1  mag  0.0
0.367265136100  0.496698789500  0.104457394800  1  1  1  mag  0.0
0.432364844700  0.493611430000  0.035615133500  1  1  1  mag  0.0
0.565194175200  0.494766666900  0.099762589700  1  1  1  mag  0.0
0.630085949400  0.494900095000  0.030661827500  1  1  1  mag  0.0
0.762923341700  0.493748956000  0.094784081700  1  1  1  mag  0.0
0.828030956000  0.496835669100  0.025969129500  1  1  1  mag  0.0
0.961957944900  0.493545474000  0.094775071400  1  1  1  mag  0.0
0.028528773200  0.488982964100  0.228409771100  1  1  1  mag  0.0
0.161342931400  0.491686453900  0.296730707000  1  1  1  mag  0.0
0.230617615000  0.497248295800  0.233312230500  1  1  1  mag  0.0
0.364019631000  0.506234729600  0.303542511000  1  1  1  mag  0.0
0.433991308400  0.504812595800  0.237925599200  1  1  1  mag  0.0
0.569584262100  0.506059595100  0.303540825300  1  1  1  mag  0.0
0.632783947300  0.497272061800  0.233305641000  1  1  1  mag  0.0
0.765499637600  0.491733532200  0.296716315300  1  1  1  mag  0.0
0.829994281600  0.489101061900  0.228408795600  1  1  1  mag  0.0
0.962897190600  0.485448753000  0.295669249200  1  1  1  mag  0.0
0.030010332300  0.481293014900  0.429886978000  1  1  1  mag  0.0
0.161795774000  0.482784889400  0.498188681000  1  1  1  mag  0.0
0.225276175500  0.490602438500  0.430224856200  1  1  1  mag  0.0
0.353752454600  0.503043244100  0.497615211600  1  1  1  mag  0.0
0.421631234900  0.516106922900  0.435497802300  1  1  1  mag  0.0
0.643940668100  0.515609027100  0.435546714100  1  1  1  mag  0.0
0.773895127500  0.502541872200  0.497605530500  1  1  1  mag  0.0
0.835065021400  0.490468350900  0.430194599000  1  1  1  mag  0.0
0.966546543300  0.482751483400  0.498173298700  1  1  1  mag  0.0
0.033518333500  0.482727361700  0.632191000600  1  1  1  mag  0.0
0.165308716700  0.481318345100  0.700475857500  1  1  1  mag  0.0
0.228796469600  0.482824798000  0.632195143900  1  1  1  mag  0.0
0.360263979800  0.490734462900  0.700178669500  1  1  1  mag  0.0
0.421351202600  0.503170655100  0.632809625500  1  1  1  mag  0.0
0.551376136900  0.516410874600  0.694942506800  1  1  1  mag  0.0
0.773553812400  0.515786787300  0.694880297500  1  1  1  mag  0.0
0.841459118400  0.502557103800  0.632790889000  1  1  1  mag  0.0
0.970000883300  0.490382911300  0.700175618000  1  1  1  mag  0.0
0.033941781800  0.491580236400  0.833671873000  1  1  1  mag  0.0
0.166747102600  0.488949502000  0.901954645200  1  1  1  mag  0.0
0.232389973400  0.485444930800  0.834674927700  1  1  1  mag  0.0
0.365309087700  0.489099833000  0.901960145000  1  1  1  mag  0.0
0.429804209300  0.491920975200  0.833676221700  1  1  1  mag  0.0
0.562482661600  0.497574305900  0.897131692300  1  1  1  mag  0.0
0.625705154200  0.506547006400  0.826940824200  1  1  1  mag  0.0
0.761280948700  0.505004351900  0.892513195900  1  1  1  mag  0.0
0.831269052500  0.506140077100  0.826913046400  1  1  1  mag  0.0
0.964683992600  0.497155258400  0.897107607600  1  1  1  mag  0.0
0.575833520100  0.706265003400  0.511905213500  1  1  1  mag  0.0
0.713160883600  0.727898906100  0.579396960600  1  1  1  mag  0.0
0.725249848300  0.803678355900  0.599851256800  1  1  1  mag  0.0
0.658220481100  0.827530847100  0.669149020900  1  1  1  mag  0.0
0.520847263600  0.805455093000  0.601741917300  1  1  1  mag  0.0
0.508864594600  0.729680143600  0.581219293100  1  1  1  mag  0.0

Pt
0.000
1
0.597762953500  0.535186568400  0.565318274800  1  1  1  mag  0.0

H 
0.000
12
0.475283966500  0.821363601000  0.654731396400  1  1  1  mag  0.0
0.527615794700  0.726346020300  0.415758815000  1  1  1  mag  0.0
0.758643962200  0.711797996600  0.526452572400  1  1  1  mag  0.0
0.763113680200  0.702345184500  0.670786439600  1  1  1  mag  0.0
0.824496019300  0.818436553100  0.651432950200  1  1  1  mag  0.0
0.683809191000  0.828882220000  0.508144875200  1  1  1  mag  0.0
0.664899054000  0.882217409300  0.679823290000  1  1  1  mag  0.0
0.706152634800  0.806633851100  0.764704451300  1  1  1  mag  0.0
0.470393945300  0.830800688300  0.510177786700  1  1  1  mag  0.0
0.409736444900  0.714738649000  0.529611803500  1  1  1  mag  0.0
0.550531509300  0.704222653800  0.672708308100  1  1  1  mag  0.0
0.569538380700  0.651073453100  0.502095657800  1  1  1  mag  0.0
