ATOMIC_SPECIES
H        1.008   H_ONCV_PBE-1.0.upf
Au  196.966569  Au_ONCV_PBE-1.0.upf

NUMERICAL_ORBITAL
H_gga_6au_100Ry_2s1p.orb
Au_gga_7au_100Ry_4s2p2d1f.orb

LATTICE_CONSTANT
1.889726

LATTICE_VECTORS
11.535196 0.0 0.0
0.0 19.063794 0.0
-5.767598 0.0 9.989773

ATOMIC_POSITIONS
Direct

H
0.0
2
0.5209850032620071 0.5331366896135232 0.6632369662381296 m 1 1 1 mag 0.0
0.4293329961513094 0.5357833100963874 0.557880033348411 m 1 1 1 mag 0.0

Au
0.0
64
0.040022 0.099542 0.040043 m 0 0 0 mag 0.0
0.290011 0.099465 0.039993 m 0 0 0 mag 0.0
0.540032 0.099521 0.039931 m 0 0 0 mag 0.0
0.790003 0.099581 0.039963 m 0 0 0 mag 0.0
0.040059 0.099587 0.290023 m 0 0 0 mag 0.0
0.290004 0.099552 0.290012 m 0 0 0 mag 0.0
0.540025 0.099492 0.289989 m 0 0 0 mag 0.0
0.790079 0.099516 0.289953 m 0 0 0 mag 0.0
0.040091 0.099525 0.539993 m 0 0 0 mag 0.0
0.29003 0.099586 0.539995 m 0 0 0 mag 0.0
0.540012 0.099562 0.540007 m 0 0 0 mag 0.0
0.790035 0.099491 0.54 m 0 0 0 mag 0.0
0.040046 0.099464 0.79002 m 0 0 0 mag 0.0
0.29004 0.09952 0.789984 m 0 0 0 mag 0.0
0.540026 0.099582 0.789988 m 0 0 0 mag 0.0
0.79002 0.099547 0.790024 m 0 0 0 mag 0.0
0.123272 0.222913 0.206574 m 0 0 0 mag 0.0
0.373265 0.222761 0.206445 m 0 0 0 mag 0.0
0.623394 0.222858 0.206558 m 0 0 0 mag 0.0
0.873375 0.222974 0.206651 m 0 0 0 mag 0.0
0.12325 0.222885 0.45661 m 0 0 0 mag 0.0
0.373259 0.222739 0.456554 m 0 0 0 mag 0.0
0.623489 0.222698 0.45655 m 0 0 0 mag 0.0
0.873467 0.222859 0.456639 m 0 0 0 mag 0.0
0.123368 0.222827 0.706745 m 0 0 0 mag 0.0
0.373305 0.22277 0.706734 m 0 0 0 mag 0.0
0.623482 0.222742 0.706775 m 0 0 0 mag 0.0
0.873593 0.222762 0.706777 m 0 0 0 mag 0.0
0.123369 0.222876 0.956703 m 0 0 0 mag 0.0
0.373296 0.222826 0.956664 m 0 0 0 mag 0.0
0.623424 0.222889 0.956774 m 0 0 0 mag 0.0
0.873458 0.222915 0.956757 m 0 0 0 mag 0.0
0.207181 0.345533 0.122468 m 1 1 1 mag 0.0
0.457105 0.34594 0.122985 m 1 1 1 mag 0.0
0.706412 0.346799 0.123965 m 1 1 1 mag 0.0
0.956376 0.346454 0.123814 m 1 1 1 mag 0.0
0.206198 0.346488 0.371881 m 1 1 1 mag 0.0
0.45618 0.347669 0.375279 m 1 1 1 mag 0.0
0.705837 0.346115 0.374112 m 1 1 1 mag 0.0
0.956149 0.34662 0.373891 m 1 1 1 mag 0.0
0.208786 0.347109 0.622875 m 1 1 1 mag 0.0
0.456613 0.347587 0.623334 m 1 1 1 mag 0.0
0.703705 0.348335 0.623304 m 1 1 1 mag 0.0
0.956857 0.345778 0.623109 m 1 1 1 mag 0.0
0.207575 0.345614 0.872826 m 1 1 1 mag 0.0
0.457718 0.347201 0.871931 m 1 1 1 mag 0.0
0.708078 0.346572 0.873616 m 1 1 1 mag 0.0
0.95718 0.345305 0.872761 m 1 1 1 mag 0.0
0.041416 0.473333 0.039032 m 1 1 1 mag 0.0
0.290283 0.473038 0.037596 m 1 1 1 mag 0.0
0.540118 0.473677 0.042538 m 1 1 1 mag 0.0
0.794335 0.474193 0.044211 m 1 1 1 mag 0.0
0.037109 0.474262 0.287034 m 1 1 1 mag 0.0
0.286138 0.473246 0.283449 m 1 1 1 mag 0.0
0.539358 0.473235 0.288057 m 1 1 1 mag 0.0
0.78959 0.473045 0.291084 m 1 1 1 mag 0.0
0.03873 0.47343 0.540224 m 1 1 1 mag 0.0
0.279899 0.474298 0.531188 m 1 1 1 mag 0.0
0.542942 0.478963 0.53347 m 1 1 1 mag 0.0
0.791424 0.472961 0.540748 m 1 1 1 mag 0.0
0.041828 0.472706 0.789289 m 1 1 1 mag 0.0
0.291446 0.473388 0.788592 m 1 1 1 mag 0.0
0.549134 0.475356 0.801525 m 1 1 1 mag 0.0
0.795848 0.473033 0.793539 m 1 1 1 mag 0.0
