ATOMIC_SPECIES
H   1.008         H_ONCV_PBE-1.0.upf
Au  196.966569    Au_ONCV_PBE-1.0.upf

NUMERICAL_ORBITAL
H_gga_6au_100Ry_2s1p.orb
Au_gga_7au_100Ry_4s2p2d1f.orb

LATTICE_CONSTANT
1.889726

LATTICE_VECTORS
11.535196000      0.0000000000      0.0000000000      
0.0000000000      19.063794000      0.0000000000      
-5.767598000      0.0000000000      9.9897730000      

ATOMIC_POSITIONS
Direct

H
0.0000000000
2
0.4830130000 0.6291840000 0.6634340000 1 1 1 mag 0.0 
0.4190910000 0.6381900000 0.6003640000 1 1 1 mag 0.0 

Au
0.0000000000
64
0.0400000000 0.1000000000 0.0400000000 0 0 0 mag 0.0 
0.2900000000 0.1000000000 0.0400000000 0 0 0 mag 0.0 
0.5400000000 0.1000000000 0.0400000000 0 0 0 mag 0.0 
0.7900000000 0.1000000000 0.0400000000 0 0 0 mag 0.0 
0.0400000000 0.1000000000 0.2900000000 0 0 0 mag 0.0 
0.2900000000 0.1000000000 0.2900000000 0 0 0 mag 0.0 
0.5400000000 0.1000000000 0.2900000000 0 0 0 mag 0.0 
0.7900000000 0.1000000000 0.2900000000 0 0 0 mag 0.0 
0.0400000000 0.1000000000 0.5400000000 0 0 0 mag 0.0 
0.2900000000 0.1000000000 0.5400000000 0 0 0 mag 0.0 
0.5400000000 0.1000000000 0.5400000000 0 0 0 mag 0.0 
0.7900000000 0.1000000000 0.5400000000 0 0 0 mag 0.0 
0.0400000000 0.1000000000 0.7900000000 0 0 0 mag 0.0 
0.2900000000 0.1000000000 0.7900000000 0 0 0 mag 0.0 
0.5400000000 0.1000000000 0.7900000000 0 0 0 mag 0.0 
0.7900000000 0.1000000000 0.7900000000 0 0 0 mag 0.0 
0.1233330000 0.2235120000 0.2066670000 0 0 0 mag 0.0 
0.3733330000 0.2235120000 0.2066670000 0 0 0 mag 0.0 
0.6233330000 0.2235120000 0.2066670000 0 0 0 mag 0.0 
0.8733330000 0.2235120000 0.2066670000 0 0 0 mag 0.0 
0.1233330000 0.2235120000 0.4566670000 0 0 0 mag 0.0 
0.3733330000 0.2235120000 0.4566670000 0 0 0 mag 0.0 
0.6233330000 0.2235120000 0.4566670000 0 0 0 mag 0.0 
0.8733330000 0.2235120000 0.4566670000 0 0 0 mag 0.0 
0.1233330000 0.2235120000 0.7066670000 0 0 0 mag 0.0 
0.3733330000 0.2235120000 0.7066670000 0 0 0 mag 0.0 
0.6233330000 0.2235120000 0.7066670000 0 0 0 mag 0.0 
0.8733330000 0.2235120000 0.7066670000 0 0 0 mag 0.0 
0.1233330000 0.2235120000 0.9566670000 0 0 0 mag 0.0 
0.3733330000 0.2235120000 0.9566670000 0 0 0 mag 0.0 
0.6233330000 0.2235120000 0.9566670000 0 0 0 mag 0.0 
0.8733330000 0.2235120000 0.9566670000 0 0 0 mag 0.0 
0.2064180000 0.3472500000 0.1229840000 1 1 1 mag 0.0 
0.4573840000 0.3473390000 0.1236310000 1 1 1 mag 0.0 
0.7067330000 0.3475540000 0.1233780000 1 1 1 mag 0.0 
0.9563160000 0.3473740000 0.1236490000 1 1 1 mag 0.0 
0.2063890000 0.3472140000 0.3729670000 1 1 1 mag 0.0 
0.4565410000 0.3472230000 0.3731330000 1 1 1 mag 0.0 
0.7066860000 0.3475110000 0.3734170000 1 1 1 mag 0.0 
0.9566220000 0.3475480000 0.3733520000 1 1 1 mag 0.0 
0.2064460000 0.3472730000 0.6234520000 1 1 1 mag 0.0 
0.4567010000 0.3469370000 0.6234260000 1 1 1 mag 0.0 
0.7069500000 0.3472140000 0.6235160000 1 1 1 mag 0.0 
0.9563630000 0.3474040000 0.6226920000 1 1 1 mag 0.0 
0.2064230000 0.3473160000 0.8733220000 1 1 1 mag 0.0 
0.4565440000 0.3472660000 0.8735460000 1 1 1 mag 0.0 
0.7071040000 0.3471980000 0.8736600000 1 1 1 mag 0.0 
0.9571320000 0.3472940000 0.8735250000 1 1 1 mag 0.0 
0.0397740000 0.4747930000 0.0399830000 1 1 1 mag 0.0 
0.2905160000 0.4748890000 0.0405750000 1 1 1 mag 0.0 
0.5402620000 0.4749260000 0.0403580000 1 1 1 mag 0.0 
0.7903930000 0.4749520000 0.0402810000 1 1 1 mag 0.0 
0.0398300000 0.4749040000 0.2897350000 1 1 1 mag 0.0 
0.2900310000 0.4743280000 0.2899140000 1 1 1 mag 0.0 
0.5399300000 0.4747460000 0.2898350000 1 1 1 mag 0.0 
0.7899480000 0.4750260000 0.2900550000 1 1 1 mag 0.0 
0.0397170000 0.4749480000 0.5398150000 1 1 1 mag 0.0 
0.2893580000 0.4734880000 0.5394910000 1 1 1 mag 0.0 
0.5403430000 0.4736550000 0.5399770000 1 1 1 mag 0.0 
0.7900590000 0.4748150000 0.5399750000 1 1 1 mag 0.0 
0.0396180000 0.4747800000 0.7897580000 1 1 1 mag 0.0 
0.2901200000 0.4744440000 0.7898500000 1 1 1 mag 0.0 
0.5406790000 0.4735470000 0.7906990000 1 1 1 mag 0.0 
0.7900720000 0.4744370000 0.7901040000 1 1 1 mag 0.0 

