ATOMIC_SPECIES
H   1.008         H_ONCV_PBE-1.0.upf
Au  196.966569    Au_ONCV_PBE-1.0.upf

NUMERICAL_ORBITAL
H_gga_6au_100Ry_2s1p.orb
Au_gga_7au_100Ry_4s2p2d1f.orb

LATTICE_CONSTANT
1.889726

LATTICE_VECTORS
11.535196000      0.0000000000      0.0000000000      
0.0000000000      19.063794000      0.0000000000      
-5.767598000      0.0000000000      9.9897730000      

ATOMIC_POSITIONS
Direct

H
0.0000000000
2
0.5194020000 0.5334390000 0.6608710000 1 1 1 mag 0.0 
0.4240050000 0.5341250000 0.5605330000 1 1 1 mag 0.0 

Au
0.0000000000
64
0.0400220000 0.0995420000 0.0400430000 0 0 0 mag 0.0 
0.2900110000 0.0994650000 0.0399930000 0 0 0 mag 0.0 
0.5400320000 0.0995210000 0.0399310000 0 0 0 mag 0.0 
0.7900030000 0.0995810000 0.0399630000 0 0 0 mag 0.0 
0.0400590000 0.0995870000 0.2900230000 0 0 0 mag 0.0 
0.2900040000 0.0995520000 0.2900120000 0 0 0 mag 0.0 
0.5400250000 0.0994920000 0.2899890000 0 0 0 mag 0.0 
0.7900790000 0.0995160000 0.2899530000 0 0 0 mag 0.0 
0.0400910000 0.0995250000 0.5399930000 0 0 0 mag 0.0 
0.2900300000 0.0995860000 0.5399950000 0 0 0 mag 0.0 
0.5400120000 0.0995620000 0.5400070000 0 0 0 mag 0.0 
0.7900350000 0.0994910000 0.5400000000 0 0 0 mag 0.0 
0.0400460000 0.0994640000 0.7900200000 0 0 0 mag 0.0 
0.2900400000 0.0995200000 0.7899840000 0 0 0 mag 0.0 
0.5400260000 0.0995820000 0.7899880000 0 0 0 mag 0.0 
0.7900200000 0.0995470000 0.7900240000 0 0 0 mag 0.0 
0.1232720000 0.2229130000 0.2065740000 0 0 0 mag 0.0 
0.3732650000 0.2227610000 0.2064450000 0 0 0 mag 0.0 
0.6233940000 0.2228580000 0.2065580000 0 0 0 mag 0.0 
0.8733750000 0.2229740000 0.2066510000 0 0 0 mag 0.0 
0.1232500000 0.2228850000 0.4566100000 0 0 0 mag 0.0 
0.3732590000 0.2227390000 0.4565540000 0 0 0 mag 0.0 
0.6234890000 0.2226980000 0.4565500000 0 0 0 mag 0.0 
0.8734670000 0.2228590000 0.4566390000 0 0 0 mag 0.0 
0.1233680000 0.2228270000 0.7067450000 0 0 0 mag 0.0 
0.3733050000 0.2227700000 0.7067340000 0 0 0 mag 0.0 
0.6234820000 0.2227420000 0.7067750000 0 0 0 mag 0.0 
0.8735930000 0.2227620000 0.7067770000 0 0 0 mag 0.0 
0.1233690000 0.2228760000 0.9567030000 0 0 0 mag 0.0 
0.3732960000 0.2228260000 0.9566640000 0 0 0 mag 0.0 
0.6234240000 0.2228890000 0.9567740000 0 0 0 mag 0.0 
0.8734580000 0.2229150000 0.9567570000 0 0 0 mag 0.0 
0.2072700000 0.3454890000 0.1226930000 1 1 1 mag 0.0 
0.4572380000 0.3458150000 0.1229700000 1 1 1 mag 0.0 
0.7065070000 0.3466440000 0.1236940000 1 1 1 mag 0.0 
0.9564220000 0.3463370000 0.1238270000 1 1 1 mag 0.0 
0.2068530000 0.3464990000 0.3722530000 1 1 1 mag 0.0 
0.4564580000 0.3478820000 0.3752770000 1 1 1 mag 0.0 
0.7063530000 0.3459750000 0.3737440000 1 1 1 mag 0.0 
0.9566570000 0.3466630000 0.3737710000 1 1 1 mag 0.0 
0.2089630000 0.3471810000 0.6229490000 1 1 1 mag 0.0 
0.4568360000 0.3477220000 0.6233590000 1 1 1 mag 0.0 
0.7044950000 0.3479510000 0.6234680000 1 1 1 mag 0.0 
0.9571110000 0.3457970000 0.6230200000 1 1 1 mag 0.0 
0.2073720000 0.3455150000 0.8727200000 1 1 1 mag 0.0 
0.4574350000 0.3471040000 0.8715580000 1 1 1 mag 0.0 
0.7079080000 0.3464530000 0.8734060000 1 1 1 mag 0.0 
0.9570570000 0.3455100000 0.8726060000 1 1 1 mag 0.0 
0.0415480000 0.4732260000 0.0386890000 1 1 1 mag 0.0 
0.2902770000 0.4729130000 0.0381240000 1 1 1 mag 0.0 
0.5401890000 0.4735130000 0.0426720000 1 1 1 mag 0.0 
0.7941380000 0.4740560000 0.0438270000 1 1 1 mag 0.0 
0.0369870000 0.4741040000 0.2866980000 1 1 1 mag 0.0 
0.2868390000 0.4731020000 0.2842660000 1 1 1 mag 0.0 
0.5396670000 0.4731860000 0.2884270000 1 1 1 mag 0.0 
0.7899670000 0.4729990000 0.2910210000 1 1 1 mag 0.0 
0.0382390000 0.4734740000 0.5401140000 1 1 1 mag 0.0 
0.2793750000 0.4749380000 0.5313560000 1 1 1 mag 0.0 
0.5439180000 0.4789160000 0.5348370000 1 1 1 mag 0.0 
0.7917890000 0.4731320000 0.5406410000 1 1 1 mag 0.0 
0.0416550000 0.4728000000 0.7897210000 1 1 1 mag 0.0 
0.2911110000 0.4734110000 0.7891030000 1 1 1 mag 0.0 
0.5493180000 0.4750460000 0.8023410000 1 1 1 mag 0.0 
0.7958450000 0.4728630000 0.7935240000 1 1 1 mag 0.0 

