ATOMIC_SPECIES
C   12.011  C_ONCV_PBE-1.0.upf
O   15.999  O_ONCV_PBE-1.0.upf
Pt  195.085  Pt_ONCV_PBE-1.0.upf

NUMERICAL_ORBITAL
C_gga_7au_100Ry_2s2p1d.orb
O_gga_7au_100Ry_2s2p1d.orb
Pt_gga_7au_100Ry_4s2p2d1f.orb

LATTICE_CONSTANT
1.889726

LATTICE_VECTORS
9.688573000000  -5.59370000000  0.000000000000
0.000000000000  11.18740000000  0.000000000000
0.000000000000  0.000000000000  18.85090000000

ATOMIC_POSITIONS
Direct

C 
0.000
1
0.630844271807  0.687411311007  0.433373000000  1  1  1  mag  0.0

O 
0.000
1
0.630209271807  0.685154311007  0.496758000000  1  1  1  mag  0.0

Pt
0.000
64
0.044552149388  0.022276074694  0.000000000000  0  0  0  mag  0.0
0.294552149388  0.022276074694  0.000000000000  0  0  0  mag  0.0
0.544552149388  0.022276074694  0.000000000000  0  0  0  mag  0.0
0.794552149388  0.022276074694  0.000000000000  0  0  0  mag  0.0
0.044552149388  0.272276074694  0.000000000000  0  0  0  mag  0.0
0.294552149388  0.272276074694  0.000000000000  0  0  0  mag  0.0
0.544552149388  0.272276074694  0.000000000000  0  0  0  mag  0.0
0.794552149388  0.272276074694  0.000000000000  0  0  0  mag  0.0
0.294552149388  0.522276074694  0.000000000000  0  0  0  mag  0.0
0.544552149388  0.522276074694  0.000000000000  0  0  0  mag  0.0
0.794552149388  0.522276074694  0.000000000000  0  0  0  mag  0.0
0.044552149388  0.522276074694  0.000000000000  0  0  0  mag  0.0
0.044552149388  0.772276074694  0.000000000000  0  0  0  mag  0.0
0.294552149388  0.772276074694  0.000000000000  0  0  0  mag  0.0
0.544552149388  0.772276074694  0.000000000000  0  0  0  mag  0.0
0.794552149388  0.772276074694  0.000000000000  0  0  0  mag  0.0
0.878056149388  0.189381074694  0.120002000000  1  1  1  mag  0.0
0.878368149388  0.439313074694  0.120193000000  1  1  1  mag  0.0
0.878037149388  0.939267074694  0.120125000000  1  1  1  mag  0.0
0.627437149388  0.188567074694  0.120307000000  1  1  1  mag  0.0
0.377857149388  0.189383074694  0.120333000000  1  1  1  mag  0.0
0.128755149388  0.189610074694  0.120598000000  1  1  1  mag  0.0
0.877761149388  0.688698074694  0.120624000000  1  1  1  mag  0.0
0.127999149388  0.939374074694  0.120604000000  1  1  1  mag  0.0
0.627300149388  0.439455074694  0.120711000000  1  1  1  mag  0.0
0.377543149388  0.938061074694  0.120739000000  1  1  1  mag  0.0
0.129600149388  0.440117074694  0.120834000000  1  1  1  mag  0.0
0.626918149388  0.937470074694  0.120912000000  1  1  1  mag  0.0
0.627341149388  0.688808074694  0.121186000000  1  1  1  mag  0.0
0.128987149388  0.689292074694  0.121261000000  1  1  1  mag  0.0
0.377932149388  0.439769074694  0.121731000000  1  1  1  mag  0.0
0.377841149388  0.688438074694  0.122789000000  1  1  1  mag  0.0
0.961660149388  0.856010074694  0.237697000000  1  1  1  mag  0.0
0.960843149388  0.105243074694  0.237735000000  1  1  1  mag  0.0
0.961396149388  0.356057074694  0.237774000000  1  1  1  mag  0.0
0.460745149388  0.105176074694  0.238236000000  1  1  1  mag  0.0
0.710948149388  0.105026074694  0.238334000000  1  1  1  mag  0.0
0.711476149388  0.356083074694  0.238373000000  1  1  1  mag  0.0
0.961179149388  0.606183074694  0.238395000000  1  1  1  mag  0.0
0.212350149388  0.108530074694  0.239450000000  1  1  1  mag  0.0
0.461016149388  0.356564074694  0.239695000000  1  1  1  mag  0.0
0.211322149388  0.854892074694  0.239656000000  1  1  1  mag  0.0
0.709843149388  0.854702074694  0.239906000000  1  1  1  mag  0.0
0.708961149388  0.604704074694  0.240476000000  1  1  1  mag  0.0
0.211968149388  0.357836074694  0.241050000000  1  1  1  mag  0.0
0.460170149388  0.854465074694  0.241354000000  1  1  1  mag  0.0
0.461178149388  0.605969074694  0.242700000000  1  1  1  mag  0.0
0.212731149388  0.605173074694  0.243069000000  1  1  1  mag  0.0
1.037066149388  0.267425074694  0.358295000000  1  1  1  mag  0.0
0.546497149388  0.270950074694  0.358308000000  1  1  1  mag  0.0
1.036390149388  0.519334074694  0.358639000000  1  1  1  mag  0.0
0.546755149388  0.026229074694  0.358972000000  1  1  1  mag  0.0
1.041780149388  1.020044074694  0.359276000000  1  1  1  mag  0.0
0.793361149388  0.271318074694  0.359324000000  1  1  1  mag  0.0
0.293669149388  0.023731074694  0.359788000000  1  1  1  mag  0.0
0.808019902503  0.779070451251  0.359907000000  1  1  1  mag  0.0
0.797327149388  0.025166074694  0.360039000000  1  1  1  mag  0.0
0.796651149388  0.522038074694  0.360137000000  1  1  1  mag  0.0
1.040395149388  0.772052074694  0.360117000000  1  1  1  mag  0.0
0.288181149388  0.258536074694  0.360847000000  1  1  1  mag  0.0
0.546900831436  0.513030291235  0.362583000000  1  1  1  mag  0.0
0.549110643157  0.771101346889  0.364866000000  1  1  1  mag  0.0
0.289598714224  0.770035283249  0.365498000000  1  1  1  mag  0.0
0.293981655618  0.522392477602  0.368362000000  1  1  1  mag  0.0
