ATOMIC_SPECIES
H 1.008 H_ONCV_PBE-1.0.upf upf201
Au 196.967 Au_ONCV_PBE-1.0.upf upf201

NUMERICAL_ORBITAL
H_gga_6au_100Ry_2s1p.orb
Au_gga_7au_100Ry_4s2p2d1f.orb

LATTICE_CONSTANT
1.889726

LATTICE_VECTORS
    9.9897762400    -5.7676000000     0.0000000000 #latvec1
    0.0000000000    11.5352000000     0.0000000000 #latvec2
    0.0000000000     0.0000000000    19.0638000000 #latvec3

ATOMIC_POSITIONS
Direct

H #label
0 #magnetism
2 #number of atoms
    0.5883599560     0.6733348369     0.4168383520 m  1  1  1
    0.3285241425     0.4136514366     0.4166851629 m  1  1  1

Au #label
0 #magnetism
64 #number of atoms
    0.0000000000     0.0000000000     0.0000000000 m  0  0  0
    0.2500000000     0.0000000000     0.0000000000 m  0  0  0
    0.5000000000     0.0000000000     0.0000000000 m  0  0  0
    0.7500000000     0.0000000000     0.0000000000 m  0  0  0
    0.0000000000     0.2500000000     0.0000000000 m  0  0  0
    0.2500000000     0.2500000000     0.0000000000 m  0  0  0
    0.5000000000     0.2500000000     0.0000000000 m  0  0  0
    0.7500000000     0.2500000000     0.0000000000 m  0  0  0
    0.0000000000     0.5000000000     0.0000000000 m  0  0  0
    0.2500000000     0.5000000000     0.0000000000 m  0  0  0
    0.5000000000     0.5000000000     0.0000000000 m  0  0  0
    0.7500000000     0.5000000000     0.0000000000 m  0  0  0
    0.0000000000     0.7500000000     0.0000000000 m  0  0  0
    0.2500000000     0.7500000000     0.0000000000 m  0  0  0
    0.5000000000     0.7500000000     0.0000000000 m  0  0  0
    0.7500000000     0.7500000000     0.0000000000 m  0  0  0
    0.0833330000     0.1666670000     0.1235120000 m  0  0  0
    0.3333330000     0.1666670000     0.1235120000 m  0  0  0
    0.5833330000     0.1666670000     0.1235120000 m  0  0  0
    0.8333330000     0.1666670000     0.1235120000 m  0  0  0
    0.0833330000     0.4166670000     0.1235120000 m  0  0  0
    0.3333330000     0.4166670000     0.1235120000 m  0  0  0
    0.5833330000     0.4166670000     0.1235120000 m  0  0  0
    0.8333330000     0.4166670000     0.1235120000 m  0  0  0
    0.0833330000     0.6666670000     0.1235120000 m  0  0  0
    0.3333330000     0.6666670000     0.1235120000 m  0  0  0
    0.5833330000     0.6666670000     0.1235120000 m  0  0  0
    0.8333330000     0.6666670000     0.1235120000 m  0  0  0
    0.0833330000     0.9166670000     0.1235120000 m  0  0  0
    0.3333330000     0.9166670000     0.1235120000 m  0  0  0
    0.5833330000     0.9166670000     0.1235120000 m  0  0  0
    0.8333330000     0.9166670000     0.1235120000 m  0  0  0
    0.1690342035     0.0860573188     0.2471752021 m  1  1  1
    0.4152029498     0.0822809952     0.2461719019 m  1  1  1
    0.6661600638     0.0834870019     0.2470135872 m  1  1  1
    0.9172095399     0.0827356336     0.2468939913 m  1  1  1
    0.1665222542     0.3328561758     0.2473081786 m  1  1  1
    0.4176194100     0.3363565807     0.2480764097 m  1  1  1
    0.6672050337     0.3328269302     0.2468606818 m  1  1  1
    0.9164795828     0.3338058176     0.2470251600 m  1  1  1
    0.1673979160     0.5824919363     0.2476498887 m  1  1  1
    0.4168848357     0.5832427846     0.2481905765 m  1  1  1
    0.6640560514     0.5826614840     0.2480794716 m  1  1  1
    0.9178592644     0.5848601717     0.2461857613 m  1  1  1
    0.1664088015     0.8337511748     0.2458273917 m  1  1  1
    0.4175656763     0.8325859738     0.2476672208 m  1  1  1
    0.6671845464     0.8334241436     0.2472788108 m  1  1  1
    0.9144401626     0.8313667889     0.2472197081 m  1  1  1
    0.0015265112     0.9998337495     0.3732690913 m  1  1  1
    0.2498106972     0.9992365471     0.3735064599 m  1  1  1
    0.4989643660     0.0012291847     0.3740022215 m  1  1  1
    0.7513840050     0.0022795067     0.3726059092 m  1  1  1
    0.9979928269     0.2489156266     0.3726882627 m  1  1  1
    0.2463880513     0.2429213792     0.3775006147 m  1  1  1
    0.5009031354     0.2480061913     0.3718609654 m  1  1  1
    0.7500123218     0.2499724796     0.3747714055 m  1  1  1
    0.9991160992     0.5010408948     0.3739830256 m  1  1  1
    0.2448654955     0.5022454449     0.3754655854 m  1  1  1
    0.5051039866     0.4965969196     0.3804973547 m  1  1  1
    0.7527585769     0.4994785531     0.3718058936 m  1  1  1
    0.0015851536     0.7506491256     0.3734508488 m  1  1  1
    0.2489772573     0.7514260074     0.3734052207 m  1  1  1
    0.4984608715     0.7556804237     0.3754621273 m  1  1  1
    0.7585321676     0.7546839234     0.3774606980 m  1  1  1
