ATOMIC_SPECIES
H    1.008  H_ONCV_PBE-1.0.upf
Au  196.967  Au_ONCV_PBE-1.0.upf

NUMERICAL_ORBITAL
H_gga_6au_100Ry_2s1p.orb
Au_gga_7au_100Ry_4s2p2d1f.orb

LATTICE_CONSTANT
1.889726

LATTICE_VECTORS
9.989774090616  -5.76759875904  0.000000000000
0.000000000000  11.53519751810  0.000000000000
0.000000000000  0.000000000000  19.06379589826

ATOMIC_POSITIONS
Direct

H 
0.000
2
0.628359956000  0.713334836900  0.516838352000  1  1  1  mag  0.0
0.368524142500  0.453651436600  0.516685162900  1  1  1  mag  0.0

Au
0.000
64
0.040000000000  0.040000000000  0.100000000000  0  0  0  mag  0.0
0.290000000000  0.040000000000  0.100000000000  0  0  0  mag  0.0
0.540000000000  0.040000000000  0.100000000000  0  0  0  mag  0.0
0.790000000000  0.040000000000  0.100000000000  0  0  0  mag  0.0
0.040000000000  0.290000000000  0.100000000000  0  0  0  mag  0.0
0.290000000000  0.290000000000  0.100000000000  0  0  0  mag  0.0
0.540000000000  0.290000000000  0.100000000000  0  0  0  mag  0.0
0.790000000000  0.290000000000  0.100000000000  0  0  0  mag  0.0
0.040000000000  0.540000000000  0.100000000000  0  0  0  mag  0.0
0.290000000000  0.540000000000  0.100000000000  0  0  0  mag  0.0
0.540000000000  0.540000000000  0.100000000000  0  0  0  mag  0.0
0.790000000000  0.540000000000  0.100000000000  0  0  0  mag  0.0
0.040000000000  0.790000000000  0.100000000000  0  0  0  mag  0.0
0.290000000000  0.790000000000  0.100000000000  0  0  0  mag  0.0
0.540000000000  0.790000000000  0.100000000000  0  0  0  mag  0.0
0.790000000000  0.790000000000  0.100000000000  0  0  0  mag  0.0
0.123333000000  0.206667000000  0.223512000000  0  0  0  mag  0.0
0.373333000000  0.206667000000  0.223512000000  0  0  0  mag  0.0
0.623333000000  0.206667000000  0.223512000000  0  0  0  mag  0.0
0.873333000000  0.206667000000  0.223512000000  0  0  0  mag  0.0
0.123333000000  0.456667000000  0.223512000000  0  0  0  mag  0.0
0.373333000000  0.456667000000  0.223512000000  0  0  0  mag  0.0
0.623333000000  0.456667000000  0.223512000000  0  0  0  mag  0.0
0.873333000000  0.456667000000  0.223512000000  0  0  0  mag  0.0
0.123333000000  0.706667000000  0.223512000000  0  0  0  mag  0.0
0.373333000000  0.706667000000  0.223512000000  0  0  0  mag  0.0
0.623333000000  0.706667000000  0.223512000000  0  0  0  mag  0.0
0.873333000000  0.706667000000  0.223512000000  0  0  0  mag  0.0
0.123333000000  0.956667000000  0.223512000000  0  0  0  mag  0.0
0.373333000000  0.956667000000  0.223512000000  0  0  0  mag  0.0
0.623333000000  0.956667000000  0.223512000000  0  0  0  mag  0.0
0.873333000000  0.956667000000  0.223512000000  0  0  0  mag  0.0
0.209034203500  0.126057318800  0.347175202100  1  1  1  mag  0.0
0.455202949800  0.122280995200  0.346171901900  1  1  1  mag  0.0
0.706160063800  0.123487001900  0.347013587200  1  1  1  mag  0.0
0.957209539900  0.122735633600  0.346893991300  1  1  1  mag  0.0
0.206522254200  0.372856175800  0.347308178600  1  1  1  mag  0.0
0.457619410000  0.376356580700  0.348076409700  1  1  1  mag  0.0
0.707205033700  0.372826930200  0.346860681800  1  1  1  mag  0.0
0.956479582800  0.373805817600  0.347025160000  1  1  1  mag  0.0
0.207397916000  0.622491936300  0.347649888700  1  1  1  mag  0.0
0.456884835700  0.623242784600  0.348190576500  1  1  1  mag  0.0
0.704056051400  0.622661484000  0.348079471600  1  1  1  mag  0.0
0.957859264400  0.624860171700  0.346185761300  1  1  1  mag  0.0
0.206408801500  0.873751174800  0.345827391700  1  1  1  mag  0.0
0.457565676300  0.872585973800  0.347667220800  1  1  1  mag  0.0
0.707184546400  0.873424143600  0.347278810800  1  1  1  mag  0.0
0.954440162600  0.871366788900  0.347219708100  1  1  1  mag  0.0
0.041526511200  0.039833749500  0.473269091300  1  1  1  mag  0.0
0.289810697200  0.039236547100  0.473506459900  1  1  1  mag  0.0
0.538964366000  0.041229184700  0.474002221500  1  1  1  mag  0.0
0.791384005000  0.042279506700  0.472605909200  1  1  1  mag  0.0
0.037992826900  0.288915626600  0.472688262700  1  1  1  mag  0.0
0.286388051300  0.282921379200  0.477500614700  1  1  1  mag  0.0
0.540903135400  0.288006191300  0.471860965400  1  1  1  mag  0.0
0.790012321800  0.289972479600  0.474771405500  1  1  1  mag  0.0
0.039116099200  0.541040894800  0.473983025600  1  1  1  mag  0.0
0.284865495500  0.542245444900  0.475465585400  1  1  1  mag  0.0
0.545103986600  0.536596919600  0.480497354700  1  1  1  mag  0.0
0.792758576900  0.539478553100  0.471805893600  1  1  1  mag  0.0
0.041585153600  0.790649125600  0.473450848800  1  1  1  mag  0.0
0.288977257300  0.791426007400  0.473405220700  1  1  1  mag  0.0
0.538460871500  0.795680423700  0.475462127300  1  1  1  mag  0.0
0.798532167600  0.794683923400  0.477460698000  1  1  1  mag  0.0
