ATOMIC_SPECIES
C   12.011        C_ONCV_PBE-1.0.upf
Pt  195.084       Pt_ONCV_PBE-1.0.upf
H   1.008         H_ONCV_PBE-1.0.upf

NUMERICAL_ORBITAL
C_gga_7au_100Ry_2s2p1d.orb
Pt_gga_7au_100Ry_4s2p2d1f.orb
H_gga_6au_100Ry_2s1p.orb

LATTICE_CONSTANT
1.8897261258369282 

LATTICE_VECTORS
12.322700000      0.0000000000      0.0000000000      
0.0000000000      20.000000000      0.0000000000      
-6.161540000      0.0000000000      10.671500000      

ATOMIC_POSITIONS
Direct

C
0.0000000000
54
0.0158690000 0.5100460000 0.0153230000 1 1 1 v 0.0 0.0 0.0 mag 0.0 
0.1499980000 0.5084440000 0.0842410000 1 1 1 v 0.0 0.0 0.0 mag 0.0 
0.2175470000 0.5070600000 0.0188110000 1 1 1 v 0.0 0.0 0.0 mag 0.0 
0.3514130000 0.5090830000 0.0870750000 1 1 1 v 0.0 0.0 0.0 mag 0.0 
0.4165280000 0.5051070000 0.0185330000 1 1 1 v 0.0 0.0 0.0 mag 0.0 
0.5496120000 0.5044110000 0.0825690000 1 1 1 v 0.0 0.0 0.0 mag 0.0 
0.6152770000 0.5048640000 0.0147700000 1 1 1 v 0.0 0.0 0.0 mag 0.0 
0.7484270000 0.5053880000 0.0795840000 1 1 1 v 0.0 0.0 0.0 mag 0.0 
0.8137700000 0.5106640000 0.0112490000 1 1 1 v 0.0 0.0 0.0 mag 0.0 
0.9479680000 0.5081040000 0.0802450000 1 1 1 v 0.0 0.0 0.0 mag 0.0 
0.0145100000 0.5022940000 0.2134640000 1 1 1 v 0.0 0.0 0.0 mag 0.0 
0.1480650000 0.5031090000 0.2819680000 1 1 1 v 0.0 0.0 0.0 mag 0.0 
0.2172420000 0.5082020000 0.2182750000 1 1 1 v 0.0 0.0 0.0 mag 0.0 
0.3522780000 0.5140030000 0.2890240000 1 1 1 v 0.0 0.0 0.0 mag 0.0 
0.4189100000 0.5166590000 0.2200750000 1 1 1 v 0.0 0.0 0.0 mag 0.0 
0.5530970000 0.5204060000 0.2824000000 1 1 1 v 0.0 0.0 0.0 mag 0.0 
0.6175730000 0.5076450000 0.2155040000 1 1 1 v 0.0 0.0 0.0 mag 0.0 
0.7505150000 0.5033840000 0.2806190000 1 1 1 v 0.0 0.0 0.0 mag 0.0 
0.8156820000 0.5011600000 0.2128980000 1 1 1 v 0.0 0.0 0.0 mag 0.0 
0.9487580000 0.4986220000 0.2805840000 1 1 1 v 0.0 0.0 0.0 mag 0.0 
0.0151200000 0.4948480000 0.4146320000 1 1 1 v 0.0 0.0 0.0 mag 0.0 
0.1472080000 0.4956470000 0.4827920000 1 1 1 v 0.0 0.0 0.0 mag 0.0 
0.2119020000 0.5007740000 0.4153190000 1 1 1 v 0.0 0.0 0.0 mag 0.0 
0.3428720000 0.5074350000 0.4827660000 1 1 1 v 0.0 0.0 0.0 mag 0.0 
0.4125160000 0.5148880000 0.4221770000 1 1 1 v 0.0 0.0 0.0 mag 0.0 
0.6296600000 0.5382640000 0.4105110000 1 1 1 v 0.0 0.0 0.0 mag 0.0 
0.7578340000 0.5217290000 0.4802910000 1 1 1 v 0.0 0.0 0.0 mag 0.0 
0.8189830000 0.5038390000 0.4141980000 1 1 1 v 0.0 0.0 0.0 mag 0.0 
0.9505010000 0.4965470000 0.4824130000 1 1 1 v 0.0 0.0 0.0 mag 0.0 
0.0171070000 0.4983790000 0.6164680000 1 1 1 v 0.0 0.0 0.0 mag 0.0 
0.1492480000 0.4958390000 0.6845400000 1 1 1 v 0.0 0.0 0.0 mag 0.0 
0.2137100000 0.4951760000 0.6170010000 1 1 1 v 0.0 0.0 0.0 mag 0.0 
0.3456330000 0.5003230000 0.6851520000 1 1 1 v 0.0 0.0 0.0 mag 0.0 
0.4091190000 0.5095160000 0.6186550000 1 1 1 v 0.0 0.0 0.0 mag 0.0 
0.5369160000 0.5238800000 0.6817030000 1 1 1 v 0.0 0.0 0.0 mag 0.0 
0.7584420000 0.5326800000 0.6799510000 1 1 1 v 0.0 0.0 0.0 mag 0.0 
0.8234690000 0.5213380000 0.6155280000 1 1 1 v 0.0 0.0 0.0 mag 0.0 
0.9532020000 0.5077240000 0.6836390000 1 1 1 v 0.0 0.0 0.0 mag 0.0 
0.0175620000 0.5083310000 0.8170260000 1 1 1 v 0.0 0.0 0.0 mag 0.0 
0.1507050000 0.5039300000 0.8854430000 1 1 1 v 0.0 0.0 0.0 mag 0.0 
0.2162970000 0.4995040000 0.8183640000 1 1 1 v 0.0 0.0 0.0 mag 0.0 
0.3492330000 0.5010530000 0.8857180000 1 1 1 v 0.0 0.0 0.0 mag 0.0 
0.4146900000 0.5021300000 0.8180530000 1 1 1 v 0.0 0.0 0.0 mag 0.0 
0.5474510000 0.5073370000 0.8817330000 1 1 1 v 0.0 0.0 0.0 mag 0.0 
0.6113120000 0.5178130000 0.8124850000 1 1 1 v 0.0 0.0 0.0 mag 0.0 
0.7468630000 0.5191970000 0.8782900000 1 1 1 v 0.0 0.0 0.0 mag 0.0 
0.8151130000 0.5224560000 0.8116990000 1 1 1 v 0.0 0.0 0.0 mag 0.0 
0.9491100000 0.5137320000 0.8812780000 1 1 1 v 0.0 0.0 0.0 mag 0.0 
0.6487620000 0.6572110000 0.6094230000 1 1 1 v 0.0 0.0 0.0 mag 0.0 
0.7804110000 0.6774430000 0.7074250000 1 1 1 v 0.0 0.0 0.0 mag 0.0 
0.7944950000 0.7536940000 0.7013620000 1 1 1 v 0.0 0.0 0.0 mag 0.0 
0.6955830000 0.7913230000 0.7175420000 1 1 1 v 0.0 0.0 0.0 mag 0.0 
0.5633310000 0.7686310000 0.6210640000 1 1 1 v 0.0 0.0 0.0 mag 0.0 
0.5487420000 0.6921330000 0.6262050000 1 1 1 v 0.0 0.0 0.0 mag 0.0 

Pt
0.0000000000
1
0.5811330000 0.5550610000 0.5554200000 1 1 1 v 0.0 0.0 0.0 mag 0.0 

H
0.0000000000
12
0.4926950000 0.7940760000 0.6358470000 1 1 1 v 0.0 0.0 0.0 mag 0.0 
0.6371080000 0.6727420000 0.5181170000 1 1 1 v 0.0 0.0 0.0 mag 0.0 
0.8500560000 0.6521140000 0.6912650000 1 1 1 v 0.0 0.0 0.0 mag 0.0 
0.7996620000 0.6631570000 0.8015630000 1 1 1 v 0.0 0.0 0.0 mag 0.0 
0.8895000000 0.7688580000 0.7729920000 1 1 1 v 0.0 0.0 0.0 mag 0.0 
0.7848610000 0.7667090000 0.6099570000 1 1 1 v 0.0 0.0 0.0 mag 0.0 
0.7051180000 0.8455360000 0.7098730000 1 1 1 v 0.0 0.0 0.0 mag 0.0 
0.7113450000 0.7820850000 0.8124910000 1 1 1 v 0.0 0.0 0.0 mag 0.0 
0.5437860000 0.7826220000 0.5264290000 1 1 1 v 0.0 0.0 0.0 mag 0.0 
0.4541240000 0.6773950000 0.5525710000 1 1 1 v 0.0 0.0 0.0 mag 0.0 
0.5579200000 0.6781140000 0.7167010000 1 1 1 v 0.0 0.0 0.0 mag 0.0 
0.6010340000 0.5895970000 0.4301890000 1 1 1 v 0.0 0.0 0.0 mag 0.0 

