ATOMIC_SPECIES
C 12.011 C_ONCV_PBE-1.0.upf upf201
Pt 195.085 Pt_ONCV_PBE-1.0.upf upf201
H 1.008 H_ONCV_PBE-1.0.upf upf201

NUMERICAL_ORBITAL
C_gga_7au_100Ry_2s2p1d.orb
Pt_gga_7au_100Ry_4s2p2d1f.orb
H_gga_6au_100Ry_2s1p.orb

LATTICE_CONSTANT
1.889726

LATTICE_VECTORS
   12.3226968955     0.0000000000     0.0000000000 #latvec1
    0.0000000000    19.9999956968     0.0000000000 #latvec2
   -6.1615404286     0.0000000000    10.6715431851 #latvec3

ATOMIC_POSITIONS
Direct

C #label
0 #magnetism
54 #number of atoms
    0.0305864454     0.4946405908     0.0305850298 m  1  1  1
    0.1646910017     0.4946498868     0.0998096910 m  1  1  1
    0.2332613163     0.4935192407     0.0355972929 m  1  1  1
    0.3672588074     0.4966832517     0.1044446117 m  1  1  1
    0.4323991165     0.4936283376     0.0355884494 m  1  1  1
    0.5651835755     0.4948310919     0.0998003745 m  1  1  1
    0.6300959230     0.4949380978     0.0306120759 m  1  1  1
    0.7629018504     0.4937494746     0.0948368742 m  1  1  1
    0.8280494567     0.4968153177     0.0259915640 m  1  1  1
    0.9620422353     0.4935655539     0.0948354558 m  1  1  1
    0.0285688382     0.4890021088     0.2285176369 m  1  1  1
    0.1613351503     0.4917474177     0.2967456984 m  1  1  1
    0.2307149152     0.4972728984     0.2333808725 m  1  1  1
    0.3640616478     0.5061831277     0.3035477245 m  1  1  1
    0.4339753482     0.5047491133     0.2378814257 m  1  1  1
    0.5695557491     0.5060232356     0.3035622599 m  1  1  1
    0.6327454276     0.4972609097     0.2333877200 m  1  1  1
    0.7655158992     0.4917742287     0.2967221717 m  1  1  1
    0.8300635683     0.4891137381     0.2285093659 m  1  1  1
    0.9629577519     0.4854355083     0.2957855797 m  1  1  1
    0.0300007039     0.4813600415     0.4298777011 m  1  1  1
    0.1618359067     0.4828786264     0.4981390787 m  1  1  1
    0.2254167615     0.4906077682     0.4302531517 m  1  1  1
    0.3539455523     0.5029211708     0.4976144750 m  1  1  1
    0.4215539306     0.5160617265     0.4353880233 m  1  1  1
    0.6439070002     0.5155880106     0.4354441535 m  1  1  1
    0.7737081617     0.5024333011     0.4976131556 m  1  1  1
    0.8349430776     0.4904517302     0.4302272146 m  1  1  1
    0.9664550416     0.4828272759     0.4981121598 m  1  1  1
    0.0334738840     0.4828043683     0.6322224560 m  1  1  1
    0.1653170564     0.4813769742     0.7005058148 m  1  1  1
    0.2288782001     0.4829211181     0.6322521184 m  1  1  1
    0.3603803249     0.4907477908     0.7001463856 m  1  1  1
    0.4215466403     0.5030417009     0.6327952147 m  1  1  1
    0.5514017680     0.5163673613     0.6950508838 m  1  1  1
    0.7736526485     0.5157880738     0.6950021001 m  1  1  1
    0.8412785481     0.5024481851     0.6327900657 m  1  1  1
    0.9698638177     0.4903648064     0.7001362261 m  1  1  1
    0.0339667633     0.4916363872     0.8336638051 m  1  1  1
    0.1667455239     0.4889613565     0.9019190184 m  1  1  1
    0.2323417457     0.4854315809     0.8346248145 m  1  1  1
    0.3652448473     0.4891179333     0.9018990588 m  1  1  1
    0.4297722837     0.4919795604     0.8336768812 m  1  1  1
    0.5625281744     0.4975935551     0.8970418708 m  1  1  1
    0.6257383920     0.5065042868     0.8269133790 m  1  1  1
    0.7613063542     0.5049376819     0.8925482813 m  1  1  1
    0.8311843757     0.5061084503     0.8268779859 m  1  1  1
    0.9645496457     0.4971874206     0.8970083367 m  1  1  1
    0.5758038108     0.7062316198     0.5118250111 m  1  1  1
    0.7132053849     0.7278566761     0.5793831075 m  1  1  1
    0.7252958980     0.8036943106     0.5998406831 m  1  1  1
    0.6582447785     0.8275368818     0.6692188915 m  1  1  1
    0.5207752576     0.8054630763     0.6017261116 m  1  1  1
    0.5088284544     0.7296553237     0.5812409787 m  1  1  1

Pt #label
0 #magnetism
1 #number of atoms
    0.5977702781     0.5352140981     0.5653206002 m  1  1  1

H #label
0 #magnetism
12 #number of atoms
    0.4753193636     0.8213416524     0.6548033097 m  1  1  1
    0.5275701818     0.7264106129     0.4156851285 m  1  1  1
    0.7586206218     0.7117872938     0.5263809484 m  1  1  1
    0.7630958593     0.7023304166     0.6708768846 m  1  1  1
    0.8245395494     0.8184079979     0.6514962708 m  1  1  1
    0.6837283324     0.8288878465     0.5080459626 m  1  1  1
    0.6648673102     0.8822191207     0.6797709607 m  1  1  1
    0.7062014159     0.8065670847     0.7647852752 m  1  1  1
    0.4703974155     0.8307940260     0.5100837876 m  1  1  1
    0.4096935930     0.7147443999     0.5295597809 m  1  1  1
    0.5506266447     0.7041978630     0.6728074687 m  1  1  1
    0.5695308066     0.6510669023     0.5020528435 m  1  1  1
