ATOMIC_SPECIES
C 12.011 C_ONCV_PBE-1.0.upf upf201
Pt 195.085 Pt_ONCV_PBE-1.0.upf upf201
H 1.008 H_ONCV_PBE-1.0.upf upf201

NUMERICAL_ORBITAL
C_gga_7au_100Ry_2s2p1d.orb
Pt_gga_7au_100Ry_4s2p2d1f.orb
H_gga_6au_100Ry_2s1p.orb

LATTICE_CONSTANT
1.889726

LATTICE_VECTORS
   12.3226968955     0.0000000000     0.0000000000 #latvec1
    0.0000000000    19.9999956968     0.0000000000 #latvec2
   -6.1615404286     0.0000000000    10.6715431851 #latvec3

ATOMIC_POSITIONS
Direct

C #label
0 #magnetism
54 #number of atoms
    0.0333059804     0.4966281511     0.0316574610 m  1  1  1
    0.1674511787     0.4955682674     0.1005555094 m  1  1  1
    0.2351142473     0.4955258144     0.0351604184 m  1  1  1
    0.3689596732     0.4982458188     0.1034662297 m  1  1  1
    0.4340002174     0.4930309498     0.0349618518 m  1  1  1
    0.5671067025     0.4930011155     0.0995678778 m  1  1  1
    0.6326901782     0.4895529840     0.0317007694 m  1  1  1
    0.7658007360     0.4913190935     0.0962259299 m  1  1  1
    0.8312256827     0.4947827049     0.0276824548 m  1  1  1
    0.9654249912     0.4937806719     0.0966007818 m  1  1  1
    0.0318340481     0.4882711385     0.2298111814 m  1  1  1
    0.1654330832     0.4873887220     0.2981246356 m  1  1  1
    0.2347421411     0.4935400658     0.2345387205 m  1  1  1
    0.3697459811     0.4997606941     0.3053872743 m  1  1  1
    0.4363016761     0.5064388416     0.2367218949 m  1  1  1
    0.5702380917     0.5137519614     0.2991968810 m  1  1  1
    0.6348775294     0.5003850700     0.2323447303 m  1  1  1
    0.7679740508     0.4965603713     0.2973967640 m  1  1  1
    0.8330032878     0.4907987513     0.2297382613 m  1  1  1
    0.9659796965     0.4868748381     0.2970871498 m  1  1  1
    0.0321374597     0.4835597797     0.4310805883 m  1  1  1
    0.1642391519     0.4798461665     0.4989716292 m  1  1  1
    0.2292151961     0.4825707425     0.4312774381 m  1  1  1
    0.3608320977     0.4856994444     0.4986563003 m  1  1  1
    0.4306701787     0.4964256824     0.4385046574 m  1  1  1
    0.6461885420     0.5325230264     0.4277573044 m  1  1  1
    0.7754896705     0.5171879740     0.4970625095 m  1  1  1
    0.8365866701     0.4988572137     0.4309108100 m  1  1  1
    0.9677258701     0.4890703101     0.4988229498 m  1  1  1
    0.0346162465     0.4904342010     0.6327646045 m  1  1  1
    0.1663706951     0.4837036508     0.7007690566 m  1  1  1
    0.2305567825     0.4784179936     0.6332580096 m  1  1  1
    0.3629014331     0.4786286060     0.7015585270 m  1  1  1
    0.4268734160     0.4842617596     0.6346328842 m  1  1  1
    0.5545719735     0.4980326188     0.6978248760 m  1  1  1
    0.7755031751     0.5212194755     0.6972769004 m  1  1  1
    0.8414559317     0.5150389727     0.6324222493 m  1  1  1
    0.9711626043     0.5008936173     0.7000244858 m  1  1  1
    0.0352813856     0.4988228677     0.8333660091 m  1  1  1
    0.1682965810     0.4932807565     0.9016661418 m  1  1  1
    0.2337261665     0.4872217500     0.8346635197 m  1  1  1
    0.3667027461     0.4863358786     0.9022179848 m  1  1  1
    0.4321065447     0.4825379021     0.8345964079 m  1  1  1
    0.5651157597     0.4868733753     0.8984761689 m  1  1  1
    0.6290901880     0.4947105624     0.8287981610 m  1  1  1
    0.7640634539     0.5006862563     0.8942718001 m  1  1  1
    0.8323399566     0.5077704187     0.8281405906 m  1  1  1
    0.9666306706     0.5014758637     0.8977552774 m  1  1  1
    0.6372274555     0.6368624003     0.6602493233 m  1  1  1
    0.7691634905     0.6649196762     0.7337482244 m  1  1  1
    0.7650575163     0.7405782770     0.7549545031 m  1  1  1
    0.6892282086     0.7558053036     0.8192493050 m  1  1  1
    0.5576433606     0.7261849815     0.7455206113 m  1  1  1
    0.5627433554     0.6504188372     0.7257940911 m  1  1  1

Pt #label
0 #magnetism
1 #number of atoms
    0.5956456673     0.5378000621     0.5755909275 m  1  1  1

H #label
0 #magnetism
12 #number of atoms
    0.5043584607     0.7351242657     0.7938596933 m  1  1  1
    0.5892758555     0.6614906970     0.5673582895 m  1  1  1
    0.8221222008     0.6554041879     0.6854165492 m  1  1  1
    0.8204934840     0.6401607305     0.8254215856 m  1  1  1
    0.8612527587     0.7597788462     0.8105664556 m  1  1  1
    0.7227955212     0.7666898529     0.6641092155 m  1  1  1
    0.6843005915     0.8100641686     0.8305874409 m  1  1  1
    0.7373754086     0.7343782449     0.9143494837 m  1  1  1
    0.5057015394     0.7511577299     0.6537778160 m  1  1  1
    0.4671615052     0.6304079437     0.6718932335 m  1  1  1
    0.6074089871     0.6256440092     0.8175416950 m  1  1  1
    0.6165283502     0.5817987672     0.4536614205 m  1  1  1
