ATOMIC_SPECIES
C   12.011        C_ONCV_PBE-1.0.upf
Pt  195.084       Pt_ONCV_PBE-1.0.upf
H   1.008         H_ONCV_PBE-1.0.upf

NUMERICAL_ORBITAL
C_gga_7au_100Ry_2s2p1d.orb
Pt_gga_7au_100Ry_4s2p2d1f.orb
H_gga_6au_100Ry_2s1p.orb

LATTICE_CONSTANT
1.8897261258369282 

LATTICE_VECTORS
12.322700000      0.0000000000      0.0000000000      
0.0000000000      20.000000000      0.0000000000      
-6.161540000      0.0000000000      10.671500000      

ATOMIC_POSITIONS
Direct

C
0.0000000000
54
0.0191110000 0.4961680000 0.0289030000 1 1 1 v 0.0 0.0 0.0 mag 0.0 
0.1530860000 0.4962450000 0.0977700000 1 1 1 v 0.0 0.0 0.0 mag 0.0 
0.2216770000 0.4954990000 0.0335330000 1 1 1 v 0.0 0.0 0.0 mag 0.0 
0.3556270000 0.4981080000 0.1022550000 1 1 1 v 0.0 0.0 0.0 mag 0.0 
0.4208820000 0.4955730000 0.0335470000 1 1 1 v 0.0 0.0 0.0 mag 0.0 
0.5536010000 0.4964960000 0.0977950000 1 1 1 v 0.0 0.0 0.0 mag 0.0 
0.6185860000 0.4967230000 0.0288120000 1 1 1 v 0.0 0.0 0.0 mag 0.0 
0.7513260000 0.4956470000 0.0931230000 1 1 1 v 0.0 0.0 0.0 mag 0.0 
0.8165310000 0.4982570000 0.0244170000 1 1 1 v 0.0 0.0 0.0 mag 0.0 
0.9505020000 0.4955270000 0.0931110000 1 1 1 v 0.0 0.0 0.0 mag 0.0 
0.0168190000 0.4917420000 0.2266690000 1 1 1 v 0.0 0.0 0.0 mag 0.0 
0.1495230000 0.4938830000 0.2946770000 1 1 1 v 0.0 0.0 0.0 mag 0.0 
0.2187120000 0.4985940000 0.2311680000 1 1 1 v 0.0 0.0 0.0 mag 0.0 
0.3520950000 0.5066630000 0.3012920000 1 1 1 v 0.0 0.0 0.0 mag 0.0 
0.4221170000 0.5047730000 0.2357970000 1 1 1 v 0.0 0.0 0.0 mag 0.0 
0.5574340000 0.5047690000 0.3016180000 1 1 1 v 0.0 0.0 0.0 mag 0.0 
0.6209910000 0.4979500000 0.2314650000 1 1 1 v 0.0 0.0 0.0 mag 0.0 
0.7538410000 0.4932310000 0.2950640000 1 1 1 v 0.0 0.0 0.0 mag 0.0 
0.8184020000 0.4915480000 0.2268330000 1 1 1 v 0.0 0.0 0.0 mag 0.0 
0.9512970000 0.4886360000 0.2940430000 1 1 1 v 0.0 0.0 0.0 mag 0.0 
0.0184050000 0.4851520000 0.4281330000 1 1 1 v 0.0 0.0 0.0 mag 0.0 
0.1500980000 0.4863130000 0.4962370000 1 1 1 v 0.0 0.0 0.0 mag 0.0 
0.2135260000 0.4925790000 0.4280420000 1 1 1 v 0.0 0.0 0.0 mag 0.0 
0.3423390000 0.5033990000 0.4952120000 1 1 1 v 0.0 0.0 0.0 mag 0.0 
0.4097960000 0.5162090000 0.4328330000 1 1 1 v 0.0 0.0 0.0 mag 0.0 
0.6316730000 0.5122380000 0.4339820000 1 1 1 v 0.0 0.0 0.0 mag 0.0 
0.7617860000 0.5007710000 0.4962740000 1 1 1 v 0.0 0.0 0.0 mag 0.0 
0.8233320000 0.4915630000 0.4285090000 1 1 1 v 0.0 0.0 0.0 mag 0.0 
0.9550860000 0.4858750000 0.4964700000 1 1 1 v 0.0 0.0 0.0 mag 0.0 
0.0221480000 0.4857830000 0.6304370000 1 1 1 v 0.0 0.0 0.0 mag 0.0 
0.1538340000 0.4852160000 0.6985130000 1 1 1 v 0.0 0.0 0.0 mag 0.0 
0.2171500000 0.4864830000 0.6301610000 1 1 1 v 0.0 0.0 0.0 mag 0.0 
0.3488210000 0.4928050000 0.6980650000 1 1 1 v 0.0 0.0 0.0 mag 0.0 
0.4101440000 0.5028910000 0.6303550000 1 1 1 v 0.0 0.0 0.0 mag 0.0 
0.5404530000 0.5145530000 0.6926970000 1 1 1 v 0.0 0.0 0.0 mag 0.0 
0.7621580000 0.5144500000 0.6936770000 1 1 1 v 0.0 0.0 0.0 mag 0.0 
0.8295850000 0.5014860000 0.6314450000 1 1 1 v 0.0 0.0 0.0 mag 0.0 
0.9586480000 0.4915510000 0.6986780000 1 1 1 v 0.0 0.0 0.0 mag 0.0 
0.0226440000 0.4933060000 0.8319870000 1 1 1 v 0.0 0.0 0.0 mag 0.0 
0.1554010000 0.4915630000 0.8999940000 1 1 1 v 0.0 0.0 0.0 mag 0.0 
0.2208990000 0.4887000000 0.8326000000 1 1 1 v 0.0 0.0 0.0 mag 0.0 
0.3538240000 0.4918540000 0.8997990000 1 1 1 v 0.0 0.0 0.0 mag 0.0 
0.4183210000 0.4941290000 0.8315770000 1 1 1 v 0.0 0.0 0.0 mag 0.0 
0.5511970000 0.4988580000 0.8951670000 1 1 1 v 0.0 0.0 0.0 mag 0.0 
0.6147420000 0.5060070000 0.8250400000 1 1 1 v 0.0 0.0 0.0 mag 0.0 
0.7500120000 0.5050450000 0.8908810000 1 1 1 v 0.0 0.0 0.0 mag 0.0 
0.8200480000 0.5060030000 0.8253470000 1 1 1 v 0.0 0.0 0.0 mag 0.0 
0.9534530000 0.4980970000 0.8954880000 1 1 1 v 0.0 0.0 0.0 mag 0.0 
0.6332120000 0.6958030000 0.5319740000 1 1 1 v 0.0 0.0 0.0 mag 0.0 
0.7683640000 0.7016870000 0.6396270000 1 1 1 v 0.0 0.0 0.0 mag 0.0 
0.7943550000 0.7719770000 0.6963000000 1 1 1 v 0.0 0.0 0.0 mag 0.0 
0.7007160000 0.7911200000 0.7384600000 1 1 1 v 0.0 0.0 0.0 mag 0.0 
0.5650290000 0.7838520000 0.6317650000 1 1 1 v 0.0 0.0 0.0 mag 0.0 
0.5400120000 0.7136000000 0.5751290000 1 1 1 v 0.0 0.0 0.0 mag 0.0 

Pt
0.0000000000
1
0.5862760000 0.5331220000 0.5633700000 1 1 1 v 0.0 0.0 0.0 mag 0.0 

H
0.0000000000
12
0.4996370000 0.7956210000 0.6653210000 1 1 1 v 0.0 0.0 0.0 mag 0.0 
0.6189660000 0.7291980000 0.4547440000 1 1 1 v 0.0 0.0 0.0 mag 0.0 
0.8344930000 0.6889300000 0.6074440000 1 1 1 v 0.0 0.0 0.0 mag 0.0 
0.7837040000 0.6647800000 0.7124510000 1 1 1 v 0.0 0.0 0.0 mag 0.0 
0.8908000000 0.7754760000 0.7754000000 1 1 1 v 0.0 0.0 0.0 mag 0.0 
0.7870830000 0.8081480000 0.6254190000 1 1 1 v 0.0 0.0 0.0 mag 0.0 
0.7181670000 0.8425130000 0.7750290000 1 1 1 v 0.0 0.0 0.0 mag 0.0 
0.7153990000 0.7583550000 0.8166330000 1 1 1 v 0.0 0.0 0.0 mag 0.0 
0.5469450000 0.8206220000 0.5579010000 1 1 1 v 0.0 0.0 0.0 mag 0.0 
0.4432780000 0.7092800000 0.4968930000 1 1 1 v 0.0 0.0 0.0 mag 0.0 
0.5493730000 0.6768910000 0.6461870000 1 1 1 v 0.0 0.0 0.0 mag 0.0 
0.6151740000 0.6445320000 0.4933890000 1 1 1 v 0.0 0.0 0.0 mag 0.0 

