ATOMIC_SPECIES
Cu  63.546        Cu_ONCV_PBE-1.0.upf
N   14.007        N_ONCV_PBE-1.0.upf

NUMERICAL_ORBITAL
Cu_gga_8au_100Ry_4s2p2d1f.orb
N_gga_7au_100Ry_2s2p1d.orb

LATTICE_CONSTANT
1.8897261258369282 

LATTICE_VECTORS
10.210600000      0.0000000000      0.0000000000      
0.0000000000      30.252700000      0.0000000000      
5.1053100000      0.0000000000      8.8426600000      

ATOMIC_POSITIONS
Direct

Cu
0.0000000000
64
0.0500000000 0.3966590000 0.0500000000 0 0 0 v 0.0 0.0 0.0 mag 0.0 
0.3000000000 0.3966590000 0.0500000000 0 0 0 v 0.0 0.0 0.0 mag 0.0 
0.5500000000 0.3966590000 0.0500000000 0 0 0 v 0.0 0.0 0.0 mag 0.0 
0.8000000000 0.3966590000 0.0500000000 0 0 0 v 0.0 0.0 0.0 mag 0.0 
0.0500000000 0.3966590000 0.3000000000 0 0 0 v 0.0 0.0 0.0 mag 0.0 
0.3000000000 0.3966590000 0.3000000000 0 0 0 v 0.0 0.0 0.0 mag 0.0 
0.5500000000 0.3966590000 0.3000000000 0 0 0 v 0.0 0.0 0.0 mag 0.0 
0.8000000000 0.3966590000 0.3000000000 0 0 0 v 0.0 0.0 0.0 mag 0.0 
0.0500000000 0.3966590000 0.5500000000 0 0 0 v 0.0 0.0 0.0 mag 0.0 
0.3000000000 0.3966590000 0.5500000000 0 0 0 v 0.0 0.0 0.0 mag 0.0 
0.5500000000 0.3966590000 0.5500000000 0 0 0 v 0.0 0.0 0.0 mag 0.0 
0.8000000000 0.3966590000 0.5500000000 0 0 0 v 0.0 0.0 0.0 mag 0.0 
0.0500000000 0.3966590000 0.8000000000 0 0 0 v 0.0 0.0 0.0 mag 0.0 
0.3000000000 0.3966590000 0.8000000000 0 0 0 v 0.0 0.0 0.0 mag 0.0 
0.5500000000 0.3966590000 0.8000000000 0 0 0 v 0.0 0.0 0.0 mag 0.0 
0.8000000000 0.3966590000 0.8000000000 0 0 0 v 0.0 0.0 0.0 mag 0.0 
0.1333330000 0.4655530000 0.1333330000 0 0 0 v 0.0 0.0 0.0 mag 0.0 
0.3833330000 0.4655530000 0.1333330000 0 0 0 v 0.0 0.0 0.0 mag 0.0 
0.6333330000 0.4655530000 0.1333330000 0 0 0 v 0.0 0.0 0.0 mag 0.0 
0.8833330000 0.4655530000 0.1333330000 0 0 0 v 0.0 0.0 0.0 mag 0.0 
0.1333330000 0.4655530000 0.3833330000 0 0 0 v 0.0 0.0 0.0 mag 0.0 
0.3833330000 0.4655530000 0.3833330000 0 0 0 v 0.0 0.0 0.0 mag 0.0 
0.6333330000 0.4655530000 0.3833330000 0 0 0 v 0.0 0.0 0.0 mag 0.0 
0.8833330000 0.4655530000 0.3833330000 0 0 0 v 0.0 0.0 0.0 mag 0.0 
0.1333330000 0.4655530000 0.6333330000 0 0 0 v 0.0 0.0 0.0 mag 0.0 
0.3833330000 0.4655530000 0.6333330000 0 0 0 v 0.0 0.0 0.0 mag 0.0 
0.6333330000 0.4655530000 0.6333330000 0 0 0 v 0.0 0.0 0.0 mag 0.0 
0.8833330000 0.4655530000 0.6333330000 0 0 0 v 0.0 0.0 0.0 mag 0.0 
0.1333330000 0.4655530000 0.8833330000 0 0 0 v 0.0 0.0 0.0 mag 0.0 
0.3833330000 0.4655530000 0.8833330000 0 0 0 v 0.0 0.0 0.0 mag 0.0 
0.6333330000 0.4655530000 0.8833330000 0 0 0 v 0.0 0.0 0.0 mag 0.0 
0.8833330000 0.4655530000 0.8833330000 0 0 0 v 0.0 0.0 0.0 mag 0.0 
0.9658950000 0.5324990000 0.2175760000 1 1 1 v 0.0 0.0 0.0 mag 0.0 
0.2193270000 0.5318810000 0.2159450000 1 1 1 v 0.0 0.0 0.0 mag 0.0 
0.4646440000 0.5319460000 0.2200730000 1 1 1 v 0.0 0.0 0.0 mag 0.0 
0.7140660000 0.5318790000 0.2159510000 1 1 1 v 0.0 0.0 0.0 mag 0.0 
0.9701650000 0.5319030000 0.4648340000 1 1 1 v 0.0 0.0 0.0 mag 0.0 
0.2137190000 0.5333550000 0.4697700000 1 1 1 v 0.0 0.0 0.0 mag 0.0 
0.4658280000 0.5333690000 0.4698120000 1 1 1 v 0.0 0.0 0.0 mag 0.0 
0.7143410000 0.5318810000 0.4648290000 1 1 1 v 0.0 0.0 0.0 mag 0.0 
0.9649650000 0.5335950000 0.7164630000 1 1 1 v 0.0 0.0 0.0 mag 0.0 
0.2159110000 0.5324770000 0.7175310000 1 1 1 v 0.0 0.0 0.0 mag 0.0 
0.4679210000 0.5335950000 0.7164850000 1 1 1 v 0.0 0.0 0.0 mag 0.0 
0.7173480000 0.5330620000 0.7147050000 1 1 1 v 0.0 0.0 0.0 mag 0.0 
0.9658900000 0.5324780000 0.9672360000 1 1 1 v 0.0 0.0 0.0 mag 0.0 
0.2162670000 0.5324780000 0.9672380000 1 1 1 v 0.0 0.0 0.0 mag 0.0 
0.4683360000 0.5328090000 0.9649930000 1 1 1 v 0.0 0.0 0.0 mag 0.0 
0.7160400000 0.5328120000 0.9649920000 1 1 1 v 0.0 0.0 0.0 mag 0.0 
0.0506030000 0.6001770000 0.0476920000 1 1 1 v 0.0 0.0 0.0 mag 0.0 
0.2995840000 0.5994350000 0.0511300000 1 1 1 v 0.0 0.0 0.0 mag 0.0 
0.5446020000 0.5991240000 0.0596920000 1 1 1 v 0.0 0.0 0.0 mag 0.0 
0.7982220000 0.5994340000 0.0510970000 1 1 1 v 0.0 0.0 0.0 mag 0.0 
0.0592560000 0.5991200000 0.2890310000 1 1 1 v 0.0 0.0 0.0 mag 0.0 
0.2976360000 0.5999390000 0.3038970000 1 1 1 v 0.0 0.0 0.0 mag 0.0 
0.5473240000 0.5999380000 0.3038900000 1 1 1 v 0.0 0.0 0.0 mag 0.0 
0.8006140000 0.5991120000 0.2890260000 1 1 1 v 0.0 0.0 0.0 mag 0.0 
0.0464250000 0.6038010000 0.5504060000 1 1 1 v 0.0 0.0 0.0 mag 0.0 
0.2983880000 0.6002810000 0.5520320000 1 1 1 v 0.0 0.0 0.0 mag 0.0 
0.5520350000 0.6037950000 0.5503870000 1 1 1 v 0.0 0.0 0.0 mag 0.0 
0.8161870000 0.5959080000 0.5165530000 1 1 1 v 0.0 0.0 0.0 mag 0.0 
0.0502440000 0.5998350000 0.8009330000 1 1 1 v 0.0 0.0 0.0 mag 0.0 
0.2976830000 0.5998320000 0.8009230000 1 1 1 v 0.0 0.0 0.0 mag 0.0 
0.5424140000 0.6021480000 0.8122560000 1 1 1 v 0.0 0.0 0.0 mag 0.0 
0.7941730000 0.6021560000 0.8122250000 1 1 1 v 0.0 0.0 0.0 mag 0.0 

N
0.0000000000
2
0.6839980000 0.6413790000 0.6486930000 1 1 1 v 0.0 0.0 0.0 mag 0.0 
0.8158860000 0.6413960000 0.6487340000 1 1 1 v 0.0 0.0 0.0 mag 0.0 

