ATOMIC_SPECIES
C   12.011        C_ONCV_PBE-1.0.upf
Pt  195.084       Pt_ONCV_PBE-1.0.upf
H   1.008         H_ONCV_PBE-1.0.upf

NUMERICAL_ORBITAL
C_gga_7au_100Ry_2s2p1d.orb
Pt_gga_7au_100Ry_4s2p2d1f.orb
H_gga_6au_100Ry_2s1p.orb

LATTICE_CONSTANT
1.8897261258369282 

LATTICE_VECTORS
12.322700000      0.0000000000      0.0000000000      
0.0000000000      20.000000000      0.0000000000      
-6.161540000      0.0000000000      10.671500000      

ATOMIC_POSITIONS
Direct

C
0.0000000000
54
0.0230720000 0.5058240000 0.0249330000 1 1 1 v 0.0 0.0 0.0 mag 0.0 
0.1566610000 0.5039540000 0.0932570000 1 1 1 v 0.0 0.0 0.0 mag 0.0 
0.2252770000 0.5046530000 0.0288980000 1 1 1 v 0.0 0.0 0.0 mag 0.0 
0.3590940000 0.5057650000 0.0972910000 1 1 1 v 0.0 0.0 0.0 mag 0.0 
0.4245860000 0.5041260000 0.0287960000 1 1 1 v 0.0 0.0 0.0 mag 0.0 
0.5573140000 0.5049260000 0.0933760000 1 1 1 v 0.0 0.0 0.0 mag 0.0 
0.6225130000 0.5038500000 0.0247620000 1 1 1 v 0.0 0.0 0.0 mag 0.0 
0.7553180000 0.5043230000 0.0893920000 1 1 1 v 0.0 0.0 0.0 mag 0.0 
0.8207480000 0.5064640000 0.0210540000 1 1 1 v 0.0 0.0 0.0 mag 0.0 
0.9546200000 0.5048120000 0.0894320000 1 1 1 v 0.0 0.0 0.0 mag 0.0 
0.0206240000 0.5001860000 0.2227240000 1 1 1 v 0.0 0.0 0.0 mag 0.0 
0.1531180000 0.4977990000 0.2902680000 1 1 1 v 0.0 0.0 0.0 mag 0.0 
0.2221130000 0.5015610000 0.2264090000 1 1 1 v 0.0 0.0 0.0 mag 0.0 
0.3557840000 0.5054440000 0.2964940000 1 1 1 v 0.0 0.0 0.0 mag 0.0 
0.4255300000 0.5086040000 0.2310670000 1 1 1 v 0.0 0.0 0.0 mag 0.0 
0.5606580000 0.5106160000 0.2969600000 1 1 1 v 0.0 0.0 0.0 mag 0.0 
0.6246330000 0.5071180000 0.2269540000 1 1 1 v 0.0 0.0 0.0 mag 0.0 
0.7575650000 0.5047400000 0.2910120000 1 1 1 v 0.0 0.0 0.0 mag 0.0 
0.8223600000 0.5025480000 0.2230760000 1 1 1 v 0.0 0.0 0.0 mag 0.0 
0.9550140000 0.4992990000 0.2901380000 1 1 1 v 0.0 0.0 0.0 mag 0.0 
0.0219510000 0.4966210000 0.4241430000 1 1 1 v 0.0 0.0 0.0 mag 0.0 
0.1533040000 0.4931700000 0.4920050000 1 1 1 v 0.0 0.0 0.0 mag 0.0 
0.2168340000 0.4932100000 0.4234270000 1 1 1 v 0.0 0.0 0.0 mag 0.0 
0.3467790000 0.4953990000 0.4907750000 1 1 1 v 0.0 0.0 0.0 mag 0.0 
0.4143970000 0.5073240000 0.4286860000 1 1 1 v 0.0 0.0 0.0 mag 0.0 
0.6341140000 0.5168630000 0.4291740000 1 1 1 v 0.0 0.0 0.0 mag 0.0 
0.7653330000 0.5117350000 0.4921970000 1 1 1 v 0.0 0.0 0.0 mag 0.0 
0.8271830000 0.5049750000 0.4243890000 1 1 1 v 0.0 0.0 0.0 mag 0.0 
0.9588810000 0.5000190000 0.4923970000 1 1 1 v 0.0 0.0 0.0 mag 0.0 
0.0259510000 0.5003750000 0.6261980000 1 1 1 v 0.0 0.0 0.0 mag 0.0 
0.1573760000 0.4974140000 0.6940410000 1 1 1 v 0.0 0.0 0.0 mag 0.0 
0.2205100000 0.4937480000 0.6257860000 1 1 1 v 0.0 0.0 0.0 mag 0.0 
0.3527780000 0.4938720000 0.6939820000 1 1 1 v 0.0 0.0 0.0 mag 0.0 
0.4149240000 0.4946340000 0.6259740000 1 1 1 v 0.0 0.0 0.0 mag 0.0 
0.5456800000 0.5041370000 0.6882700000 1 1 1 v 0.0 0.0 0.0 mag 0.0 
0.7651820000 0.5205300000 0.6905160000 1 1 1 v 0.0 0.0 0.0 mag 0.0 
0.8331520000 0.5132060000 0.6274870000 1 1 1 v 0.0 0.0 0.0 mag 0.0 
0.9626600000 0.5060080000 0.6945480000 1 1 1 v 0.0 0.0 0.0 mag 0.0 
0.0265280000 0.5065670000 0.8277540000 1 1 1 v 0.0 0.0 0.0 mag 0.0 
0.1591240000 0.5037220000 0.8953570000 1 1 1 v 0.0 0.0 0.0 mag 0.0 
0.2245640000 0.5001570000 0.8280380000 1 1 1 v 0.0 0.0 0.0 mag 0.0 
0.3575940000 0.5003870000 0.8952430000 1 1 1 v 0.0 0.0 0.0 mag 0.0 
0.4223850000 0.4981770000 0.8273480000 1 1 1 v 0.0 0.0 0.0 mag 0.0 
0.5553640000 0.5016680000 0.8912440000 1 1 1 v 0.0 0.0 0.0 mag 0.0 
0.6194720000 0.5043330000 0.8212410000 1 1 1 v 0.0 0.0 0.0 mag 0.0 
0.7540820000 0.5095410000 0.8872580000 1 1 1 v 0.0 0.0 0.0 mag 0.0 
0.8240630000 0.5134850000 0.8219690000 1 1 1 v 0.0 0.0 0.0 mag 0.0 
0.9576650000 0.5091270000 0.8917980000 1 1 1 v 0.0 0.0 0.0 mag 0.0 
0.6208770000 0.6675480000 0.5682320000 1 1 1 v 0.0 0.0 0.0 mag 0.0 
0.7598360000 0.6817910000 0.6554310000 1 1 1 v 0.0 0.0 0.0 mag 0.0 
0.7702270000 0.7568880000 0.6834090000 1 1 1 v 0.0 0.0 0.0 mag 0.0 
0.6899030000 0.7775480000 0.7411330000 1 1 1 v 0.0 0.0 0.0 mag 0.0 
0.5538630000 0.7531050000 0.6653070000 1 1 1 v 0.0 0.0 0.0 mag 0.0 
0.5483550000 0.6782340000 0.6375650000 1 1 1 v 0.0 0.0 0.0 mag 0.0 

Pt
0.0000000000
1
0.5869860000 0.5291340000 0.5595220000 1 1 1 v 0.0 0.0 0.0 mag 0.0 

H
0.0000000000
12
0.5027080000 0.7647550000 0.7147590000 1 1 1 v 0.0 0.0 0.0 mag 0.0 
0.5854070000 0.7028710000 0.4895390000 1 1 1 v 0.0 0.0 0.0 mag 0.0 
0.8169990000 0.6671560000 0.6137670000 1 1 1 v 0.0 0.0 0.0 mag 0.0 
0.7963810000 0.6532450000 0.7434330000 1 1 1 v 0.0 0.0 0.0 mag 0.0 
0.8682090000 0.7717920000 0.7450980000 1 1 1 v 0.0 0.0 0.0 mag 0.0 
0.7372600000 0.7835190000 0.5940450000 1 1 1 v 0.0 0.0 0.0 mag 0.0 
0.6914330000 0.8322190000 0.7507180000 1 1 1 v 0.0 0.0 0.0 mag 0.0 
0.7322220000 0.7568550000 0.8366110000 1 1 1 v 0.0 0.0 0.0 mag 0.0 
0.5054450000 0.7795510000 0.5748010000 1 1 1 v 0.0 0.0 0.0 mag 0.0 
0.4511370000 0.6605990000 0.5828680000 1 1 1 v 0.0 0.0 0.0 mag 0.0 
0.5917450000 0.6499080000 0.7263220000 1 1 1 v 0.0 0.0 0.0 mag 0.0 
0.5972630000 0.6201120000 0.5101300000 1 1 1 v 0.0 0.0 0.0 mag 0.0 

