ATOMIC_SPECIES
C   12.011        C_ONCV_PBE-1.0.upf
Pt  195.084       Pt_ONCV_PBE-1.0.upf
H   1.008         H_ONCV_PBE-1.0.upf

NUMERICAL_ORBITAL
C_gga_7au_100Ry_2s2p1d.orb
Pt_gga_7au_100Ry_4s2p2d1f.orb
H_gga_6au_100Ry_2s1p.orb

LATTICE_CONSTANT
1.8897261258369282 

LATTICE_VECTORS
12.322700000      0.0000000000      0.0000000000      
0.0000000000      20.000000000      0.0000000000      
-6.161540000      0.0000000000      10.671500000      

ATOMIC_POSITIONS
Direct

C
0.0000000000
54
0.0288170000 0.5028800000 0.0278530000 1 1 1 v 0.0 0.0 0.0 mag 0.0 
0.1629110000 0.5005310000 0.0967030000 1 1 1 v 0.0 0.0 0.0 mag 0.0 
0.2306110000 0.4993720000 0.0314090000 1 1 1 v 0.0 0.0 0.0 mag 0.0 
0.3644650000 0.5013360000 0.0996460000 1 1 1 v 0.0 0.0 0.0 mag 0.0 
0.4295990000 0.4972070000 0.0311820000 1 1 1 v 0.0 0.0 0.0 mag 0.0 
0.5627080000 0.4970250000 0.0954180000 1 1 1 v 0.0 0.0 0.0 mag 0.0 
0.6283270000 0.4968470000 0.0274850000 1 1 1 v 0.0 0.0 0.0 mag 0.0 
0.7614370000 0.4978040000 0.0922090000 1 1 1 v 0.0 0.0 0.0 mag 0.0 
0.8267530000 0.5031580000 0.0237750000 1 1 1 v 0.0 0.0 0.0 mag 0.0 
0.9609510000 0.5005220000 0.0927840000 1 1 1 v 0.0 0.0 0.0 mag 0.0 
0.0274590000 0.4940200000 0.2259950000 1 1 1 v 0.0 0.0 0.0 mag 0.0 
0.1610080000 0.4939300000 0.2944390000 1 1 1 v 0.0 0.0 0.0 mag 0.0 
0.2301450000 0.4993230000 0.2306690000 1 1 1 v 0.0 0.0 0.0 mag 0.0 
0.3651080000 0.5051910000 0.3012670000 1 1 1 v 0.0 0.0 0.0 mag 0.0 
0.4319010000 0.5091020000 0.2327300000 1 1 1 v 0.0 0.0 0.0 mag 0.0 
0.5660010000 0.5143630000 0.2952730000 1 1 1 v 0.0 0.0 0.0 mag 0.0 
0.6305620000 0.5014950000 0.2283940000 1 1 1 v 0.0 0.0 0.0 mag 0.0 
0.7635400000 0.4973420000 0.2935020000 1 1 1 v 0.0 0.0 0.0 mag 0.0 
0.8286550000 0.4941500000 0.2256850000 1 1 1 v 0.0 0.0 0.0 mag 0.0 
0.9616750000 0.4909310000 0.2932280000 1 1 1 v 0.0 0.0 0.0 mag 0.0 
0.0279750000 0.4870860000 0.4273310000 1 1 1 v 0.0 0.0 0.0 mag 0.0 
0.1601000000 0.4863070000 0.4954240000 1 1 1 v 0.0 0.0 0.0 mag 0.0 
0.2249280000 0.4906850000 0.4278330000 1 1 1 v 0.0 0.0 0.0 mag 0.0 
0.3560020000 0.4964570000 0.4952690000 1 1 1 v 0.0 0.0 0.0 mag 0.0 
0.4254730000 0.5051750000 0.4343960000 1 1 1 v 0.0 0.0 0.0 mag 0.0 
0.6422670000 0.5328530000 0.4235060000 1 1 1 v 0.0 0.0 0.0 mag 0.0 
0.7711680000 0.5171790000 0.4931630000 1 1 1 v 0.0 0.0 0.0 mag 0.0 
0.8320630000 0.4985510000 0.4271370000 1 1 1 v 0.0 0.0 0.0 mag 0.0 
0.9634490000 0.4903520000 0.4951800000 1 1 1 v 0.0 0.0 0.0 mag 0.0 
0.0300600000 0.4922280000 0.6291810000 1 1 1 v 0.0 0.0 0.0 mag 0.0 
0.1620580000 0.4878320000 0.6971590000 1 1 1 v 0.0 0.0 0.0 mag 0.0 
0.2265250000 0.4855460000 0.6296410000 1 1 1 v 0.0 0.0 0.0 mag 0.0 
0.3586580000 0.4895400000 0.6977780000 1 1 1 v 0.0 0.0 0.0 mag 0.0 
0.4221190000 0.4980010000 0.6310860000 1 1 1 v 0.0 0.0 0.0 mag 0.0 
0.5494340000 0.5134480000 0.6937460000 1 1 1 v 0.0 0.0 0.0 mag 0.0 
0.7716400000 0.5296490000 0.6929010000 1 1 1 v 0.0 0.0 0.0 mag 0.0 
0.8370770000 0.5179960000 0.6284840000 1 1 1 v 0.0 0.0 0.0 mag 0.0 
0.9663940000 0.5031360000 0.6963090000 1 1 1 v 0.0 0.0 0.0 mag 0.0 
0.0307310000 0.5027110000 0.8296870000 1 1 1 v 0.0 0.0 0.0 mag 0.0 
0.1637080000 0.4968290000 0.8979720000 1 1 1 v 0.0 0.0 0.0 mag 0.0 
0.2293010000 0.4914830000 0.8310080000 1 1 1 v 0.0 0.0 0.0 mag 0.0 
0.3622870000 0.4923460000 0.8983570000 1 1 1 v 0.0 0.0 0.0 mag 0.0 
0.4277920000 0.4923230000 0.8306840000 1 1 1 v 0.0 0.0 0.0 mag 0.0 
0.5605550000 0.4980270000 0.8942880000 1 1 1 v 0.0 0.0 0.0 mag 0.0 
0.6242440000 0.5085540000 0.8247980000 1 1 1 v 0.0 0.0 0.0 mag 0.0 
0.7597760000 0.5120060000 0.8907270000 1 1 1 v 0.0 0.0 0.0 mag 0.0 
0.8282780000 0.5174180000 0.8244330000 1 1 1 v 0.0 0.0 0.0 mag 0.0 
0.9622010000 0.5080300000 0.8939270000 1 1 1 v 0.0 0.0 0.0 mag 0.0 
0.6254130000 0.6516950000 0.6181030000 1 1 1 v 0.0 0.0 0.0 mag 0.0 
0.7558610000 0.6816810000 0.6799230000 1 1 1 v 0.0 0.0 0.0 mag 0.0 
0.7485340000 0.7586720000 0.6825430000 1 1 1 v 0.0 0.0 0.0 mag 0.0 
0.6741760000 0.7814740000 0.7446570000 1 1 1 v 0.0 0.0 0.0 mag 0.0 
0.5432510000 0.7506170000 0.6792710000 1 1 1 v 0.0 0.0 0.0 mag 0.0 
0.5500110000 0.6735500000 0.6783700000 1 1 1 v 0.0 0.0 0.0 mag 0.0 

Pt
0.0000000000
1
0.5917300000 0.5466160000 0.5673070000 1 1 1 v 0.0 0.0 0.0 mag 0.0 

H
0.0000000000
12
0.4901530000 0.7658380000 0.7250430000 1 1 1 v 0.0 0.0 0.0 mag 0.0 
0.5746800000 0.6685030000 0.5191010000 1 1 1 v 0.0 0.0 0.0 mag 0.0 
0.8051690000 0.6668350000 0.6301130000 1 1 1 v 0.0 0.0 0.0 mag 0.0 
0.8115840000 0.6629830000 0.7763700000 1 1 1 v 0.0 0.0 0.0 mag 0.0 
0.8438890000 0.7794710000 0.7315510000 1 1 1 v 0.0 0.0 0.0 mag 0.0 
0.7033590000 0.7782470000 0.5860110000 1 1 1 v 0.0 0.0 0.0 mag 0.0 
0.6679420000 0.8363500000 0.7437160000 1 1 1 v 0.0 0.0 0.0 mag 0.0 
0.7240850000 0.7661700000 0.8438300000 1 1 1 v 0.0 0.0 0.0 mag 0.0 
0.4904970000 0.7691930000 0.5821140000 1 1 1 v 0.0 0.0 0.0 mag 0.0 
0.4546550000 0.6529490000 0.6270930000 1 1 1 v 0.0 0.0 0.0 mag 0.0 
0.5937230000 0.6548220000 0.7749810000 1 1 1 v 0.0 0.0 0.0 mag 0.0 
0.6159490000 0.5844340000 0.4459550000 1 1 1 v 0.0 0.0 0.0 mag 0.0 

