ATOMIC_SPECIES
C   12.011        C_ONCV_PBE-1.0.upf
O   15.999        O_ONCV_PBE-1.0.upf
Pt  195.084       Pt_ONCV_PBE-1.0.upf

NUMERICAL_ORBITAL
C_gga_7au_100Ry_2s2p1d.orb
O_gga_7au_100Ry_2s2p1d.orb
Pt_gga_7au_100Ry_4s2p2d1f.orb

LATTICE_CONSTANT
1.889726

LATTICE_VECTORS
11.187398000      0.0000000000      0.0000000000      
0.0000000000      18.850897000      0.0000000000      
-5.593699000      0.0000000000      9.6885710000      

ATOMIC_POSITIONS
Direct

C
0.0000000000
1
0.3957960000 0.4037910000 0.6834060000 1 1 1 mag 0.0 

O
0.0000000000
1
0.4246860000 0.4454220000 0.5473150000 1 1 1 mag 0.0 

Pt
0.0000000000
64
0.0451300000 0.9998580000 0.0225340000 0 0 0 mag 0.0 
0.2948910000 0.9997610000 0.0224650000 0 0 0 mag 0.0 
0.5449490000 0.9996410000 0.0225310000 0 0 0 mag 0.0 
0.7951170000 0.9996830000 0.0225880000 0 0 0 mag 0.0 
0.0450280000 0.9997840000 0.2725340000 0 0 0 mag 0.0 
0.2949110000 0.9997290000 0.2724480000 0 0 0 mag 0.0 
0.5449550000 0.9997050000 0.2725430000 0 0 0 mag 0.0 
0.7950460000 0.9997720000 0.2725850000 0 0 0 mag 0.0 
0.2948930000 0.9996970000 0.5224350000 0 0 0 mag 0.0 
0.5449720000 0.9996430000 0.5224680000 0 0 0 mag 0.0 
0.7950750000 0.9997970000 0.5225400000 0 0 0 mag 0.0 
0.0449850000 0.9998330000 0.5224850000 0 0 0 mag 0.0 
0.0451040000 0.9999270000 0.7725090000 0 0 0 mag 0.0 
0.2948860000 0.9997110000 0.7724540000 0 0 0 mag 0.0 
0.5449710000 0.9995850000 0.7724920000 0 0 0 mag 0.0 
0.7951420000 0.9997080000 0.7725370000 0 0 0 mag 0.0 
0.8794690000 0.1196600000 0.1885160000 1 1 1 mag 0.0 
0.8782310000 0.1201500000 0.4379290000 1 1 1 mag 0.0 
0.8807300000 0.1193730000 0.9380480000 1 1 1 mag 0.0 
0.6283660000 0.1199830000 0.1878020000 1 1 1 mag 0.0 
0.3801320000 0.1195340000 0.1894060000 1 1 1 mag 0.0 
0.1304190000 0.1195510000 0.1881230000 1 1 1 mag 0.0 
0.8774950000 0.1208780000 0.6862160000 1 1 1 mag 0.0 
0.1295530000 0.1203580000 0.9367280000 1 1 1 mag 0.0 
0.6280680000 0.1214430000 0.4390090000 1 1 1 mag 0.0 
0.3781340000 0.1208950000 0.9371370000 1 1 1 mag 0.0 
0.1297830000 0.1199110000 0.4398010000 1 1 1 mag 0.0 
0.6287720000 0.1197540000 0.9375640000 1 1 1 mag 0.0 
0.6289860000 0.1209860000 0.6881970000 1 1 1 mag 0.0 
0.1289680000 0.1216070000 0.6881300000 1 1 1 mag 0.0 
0.3794350000 0.1207750000 0.4396190000 1 1 1 mag 0.0 
0.3788730000 0.1217490000 0.6884140000 1 1 1 mag 0.0 
0.9644300000 0.2378020000 0.8529780000 1 1 1 mag 0.0 
0.9642570000 0.2366850000 0.1035830000 1 1 1 mag 0.0 
0.9620510000 0.2375670000 0.3550800000 1 1 1 mag 0.0 
0.4628730000 0.2381760000 0.1056060000 1 1 1 mag 0.0 
0.7133160000 0.2377010000 0.1051730000 1 1 1 mag 0.0 
0.7118050000 0.2386320000 0.3549990000 1 1 1 mag 0.0 
0.9605550000 0.2391110000 0.6038920000 1 1 1 mag 0.0 
0.2137270000 0.2368450000 0.1017760000 1 1 1 mag 0.0 
0.4618620000 0.2402280000 0.3567900000 1 1 1 mag 0.0 
0.2151180000 0.2419280000 0.8509840000 1 1 1 mag 0.0 
0.7159860000 0.2375730000 0.8566070000 1 1 1 mag 0.0 
0.7077650000 0.2427720000 0.6030930000 1 1 1 mag 0.0 
0.2107890000 0.2373600000 0.3538930000 1 1 1 mag 0.0 
0.4628310000 0.2403340000 0.8551910000 1 1 1 mag 0.0 
0.4636440000 0.2416050000 0.6061820000 1 1 1 mag 0.0 
0.2141860000 0.2419050000 0.6039570000 1 1 1 mag 0.0 
0.0403450000 0.3574640000 0.2663770000 1 1 1 mag 0.0 
0.5463980000 0.3591000000 0.2750680000 1 1 1 mag 0.0 
0.0400030000 0.3585410000 0.5195940000 1 1 1 mag 0.0 
0.5504920000 0.3585680000 0.0301550000 1 1 1 mag 0.0 
0.0479210000 0.3587230000 0.0202800000 1 1 1 mag 0.0 
0.7958500000 0.3590280000 0.2738040000 1 1 1 mag 0.0 
0.2987340000 0.3600910000 0.0221670000 1 1 1 mag 0.0 
0.8071600000 0.3602760000 0.7787810000 1 1 1 mag 0.0 
0.8037660000 0.3587380000 0.0292630000 1 1 1 mag 0.0 
0.7955120000 0.3607310000 0.5230010000 1 1 1 mag 0.0 
0.0477130000 0.3607020000 0.7716850000 1 1 1 mag 0.0 
0.2917020000 0.3567320000 0.2612760000 1 1 1 mag 0.0 
0.5579280000 0.3698410000 0.5381140000 1 1 1 mag 0.0 
0.5696310000 0.3586640000 0.7923980000 1 1 1 mag 0.0 
0.2930350000 0.3713770000 0.7743780000 1 1 1 mag 0.0 
0.2825120000 0.3606780000 0.4991760000 1 1 1 mag 0.0 

