ATOMIC_SPECIES
C   12.011  C_ONCV_PBE-1.0.upf
Pt  195.085  Pt_ONCV_PBE-1.0.upf
H    1.008  H_ONCV_PBE-1.0.upf

NUMERICAL_ORBITAL
C_gga_7au_100Ry_2s2p1d.orb
Pt_gga_7au_100Ry_4s2p2d1f.orb
H_gga_6au_100Ry_2s1p.orb

LATTICE_CONSTANT
1.889726

LATTICE_VECTORS
12.32269954680  0.000000000000  0.000000000000
-6.16154175430  10.67154548120  0.000000000000
0.000000000000  0.000000000000  20.00000000000

ATOMIC_POSITIONS
Direct

C 
0.000
54
0.000568340000  0.000551010000  0.494463660000  1  1  1  mag  0.0
0.134717240000  0.069921270000  0.494463190000  1  1  1  mag  0.0
0.203357580000  0.005703710000  0.493432970000  1  1  1  mag  0.0
0.337262890000  0.074448130000  0.496583600000  1  1  1  mag  0.0
0.402397270000  0.005700330000  0.493532650000  1  1  1  mag  0.0
0.535237530000  0.069872320000  0.494673550000  1  1  1  mag  0.0
0.600049940000  0.000553810000  0.494801840000  1  1  1  mag  0.0
0.732912400000  0.064705340000  0.493684110000  1  1  1  mag  0.0
0.797995940000  0.995938660000  0.496738780000  1  1  1  mag  0.0
0.931862190000  0.064710930000  0.493493380000  1  1  1  mag  0.0
0.998625850000  0.198286670000  0.489056570000  1  1  1  mag  0.0
0.131309090000  0.266825730000  0.491514280000  1  1  1  mag  0.0
0.200830490000  0.203477750000  0.497004710000  1  1  1  mag  0.0
0.334003050000  0.273604430000  0.506442930000  1  1  1  mag  0.0
0.404060430000  0.208049220000  0.505074400000  1  1  1  mag  0.0
0.539686240000  0.273583290000  0.506270560000  1  1  1  mag  0.0
0.602733210000  0.203437690000  0.497049930000  1  1  1  mag  0.0
0.735633270000  0.266808520000  0.491610080000  1  1  1  mag  0.0
0.799800410000  0.198283450000  0.489216710000  1  1  1  mag  0.0
0.932983670000  0.265798620000  0.485651170000  1  1  1  mag  0.0
0.000109030000  0.400088290000  0.481188320000  1  1  1  mag  0.0
0.131865240000  0.468265720000  0.482581050000  1  1  1  mag  0.0
0.195129590000  0.400198510000  0.490474470000  1  1  1  mag  0.0
0.323467870000  0.467743100000  0.503279970000  1  1  1  mag  0.0
0.391676330000  0.405458660000  0.516576660000  1  1  1  mag  0.0
0.613838460000  0.405527590000  0.516015090000  1  1  1  mag  0.0
0.744301450000  0.467749170000  0.502746750000  1  1  1  mag  0.0
0.805172330000  0.400186770000  0.490379600000  1  1  1  mag  0.0
0.936553420000  0.468220620000  0.482618330000  1  1  1  mag  0.0
0.003470510000  0.602092400000  0.482597910000  1  1  1  mag  0.0
0.135227570000  0.670269640000  0.481216260000  1  1  1  mag  0.0
0.198803940000  0.602158550000  0.482632280000  1  1  1  mag  0.0
0.330164120000  0.670205890000  0.490603960000  1  1  1  mag  0.0
0.390920860000  0.602685470000  0.503417490000  1  1  1  mag  0.0
0.521416700000  0.664957730000  0.516931520000  1  1  1  mag  0.0
0.743529850000  0.664902750000  0.516209160000  1  1  1  mag  0.0
0.811739560000  0.602623180000  0.502756040000  1  1  1  mag  0.0
0.940170640000  0.670180750000  0.490295520000  1  1  1  mag  0.0
0.003991300000  0.803591380000  0.491469470000  1  1  1  mag  0.0
0.136667330000  0.872125150000  0.489035730000  1  1  1  mag  0.0
0.202328330000  0.804612450000  0.485626990000  1  1  1  mag  0.0
0.335533120000  0.872119480000  0.489155050000  1  1  1  mag  0.0
0.399671210000  0.803623300000  0.491798770000  1  1  1  mag  0.0
0.532556080000  0.866996710000  0.497380130000  1  1  1  mag  0.0
0.595551610000  0.796849680000  0.506783770000  1  1  1  mag  0.0
0.731192980000  0.862312830000  0.505249460000  1  1  1  mag  0.0
0.801343110000  0.796829920000  0.506299120000  1  1  1  mag  0.0
0.934520940000  0.866993140000  0.496914530000  1  1  1  mag  0.0
0.545841670000  0.481878130000  0.706077500000  1  1  1  mag  0.0
0.683295650000  0.549382040000  0.727864060000  1  1  1  mag  0.0
0.695385330000  0.569890540000  0.803760690000  1  1  1  mag  0.0
0.628205780000  0.639213160000  0.827674840000  1  1  1  mag  0.0
0.490703400000  0.571728790000  0.805543080000  1  1  1  mag  0.0
0.478753630000  0.551203540000  0.729637730000  1  1  1  mag  0.0

Pt
0.000
1
0.567727810000  0.535282310000  0.533852800000  1  1  1  mag  0.0

H 
0.000
12
0.445026370000  0.624895830000  0.821482450000  1  1  1  mag  0.0
0.497502450000  0.385529130000  0.726351140000  1  1  1  mag  0.0
0.728919090000  0.496261760000  0.711757210000  1  1  1  mag  0.0
0.733344740000  0.641097730000  0.702218540000  1  1  1  mag  0.0
0.794833920000  0.621529170000  0.818554330000  1  1  1  mag  0.0
0.653728430000  0.477816780000  0.829032050000  1  1  1  mag  0.0
0.635032200000  0.650002240000  0.882477960000  1  1  1  mag  0.0
0.676342480000  0.735066240000  0.806650910000  1  1  1  mag  0.0
0.440113440000  0.479819180000  0.830981570000  1  1  1  mag  0.0
0.379339470000  0.499453080000  0.714678730000  1  1  1  mag  0.0
0.520612570000  0.642972280000  0.704115650000  1  1  1  mag  0.0
0.539489990000  0.472156740000  0.650826380000  1  1  1  mag  0.0
