ATOMIC_SPECIES
C   12.011  C_ONCV_PBE-1.0.upf
Pt  195.085  Pt_ONCV_PBE-1.0.upf
H    1.008  H_ONCV_PBE-1.0.upf

NUMERICAL_ORBITAL
C_gga_7au_100Ry_2s2p1d.orb
Pt_gga_7au_100Ry_4s2p2d1f.orb
H_gga_6au_100Ry_2s1p.orb

LATTICE_CONSTANT
1.889726

LATTICE_VECTORS
12.32269954680  0.000000000000  0.000000000000
-6.16154175430  10.67154548120  0.000000000000
0.000000000000  0.000000000000  20.00000000000

ATOMIC_POSITIONS
Direct

C 
0.000
54
0.003084048135  0.001624914579  0.496587378795  1  1  1  mag  0.0
0.137656875060  0.070528019735  0.495552031283  1  1  1  mag  0.0
0.205012545109  0.005477484876  0.495534643914  1  1  1  mag  0.0
0.339229270948  0.073697711294  0.498178511885  1  1  1  mag  0.0
0.404235075052  0.005224404921  0.492974078578  1  1  1  mag  0.0
0.537015185843  0.069632763161  0.492823573408  1  1  1  mag  0.0
0.602954381305  0.001705890554  0.489395713943  1  1  1  mag  0.0
0.735543369768  0.065976930878  0.491330858553  1  1  1  mag  0.0
0.801195678513  0.997472994462  0.494788107911  1  1  1  mag  0.0
0.935365090611  0.066295159815  0.493769442644  1  1  1  mag  0.0
0.001847606579  0.199914114883  0.488299017128  1  1  1  mag  0.0
0.135416713194  0.268118112225  0.487311500754  1  1  1  mag  0.0
0.204851456450  0.204551886685  0.493416194801  1  1  1  mag  0.0
0.339522486130  0.275102102839  0.499662133212  1  1  1  mag  0.0
0.406366581885  0.206684649953  0.506506007126  1  1  1  mag  0.0
0.540247701236  0.269057684841  0.513983162646  1  1  1  mag  0.0
0.604743319810  0.202234009251  0.500527509572  1  1  1  mag  0.0
0.738091306086  0.267281445106  0.496535082461  1  1  1  mag  0.0
0.802895911557  0.199651437967  0.490875220010  1  1  1  mag  0.0
0.935956690019  0.266726667933  0.486945405055  1  1  1  mag  0.0
0.002270442025  0.401396821579  0.483526932772  1  1  1  mag  0.0
0.134101850764  0.468925580379  0.479789510859  1  1  1  mag  0.0
0.199149305414  0.401176441250  0.482511126123  1  1  1  mag  0.0
0.330753468178  0.468480942648  0.485632272072  1  1  1  mag  0.0
0.400151917073  0.408083128065  0.496272888858  1  1  1  mag  0.0
0.616318460033  0.397637004417  0.532803801756  1  1  1  mag  0.0
0.745378682642  0.466878395406  0.517325804501  1  1  1  mag  0.0
0.806439417814  0.400817644355  0.498641254860  1  1  1  mag  0.0
0.937737701410  0.468730441969  0.488912408297  1  1  1  mag  0.0
0.004715311396  0.602819784209  0.490300871735  1  1  1  mag  0.0
0.136235910701  0.670564077632  0.483672276965  1  1  1  mag  0.0
0.200497644341  0.603270320171  0.478417560733  1  1  1  mag  0.0
0.333026738268  0.671667718324  0.478440201443  1  1  1  mag  0.0
0.396958469636  0.604731829388  0.484125020526  1  1  1  mag  0.0
0.524516498892  0.667909873283  0.497972014693  1  1  1  mag  0.0
0.745656740148  0.667402756991  0.521190383454  1  1  1  mag  0.0
0.811512811526  0.602647916515  0.515307785776  1  1  1  mag  0.0
0.941140088819  0.670120457265  0.500903634890  1  1  1  mag  0.0
0.005392778974  0.803400577828  0.498784019698  1  1  1  mag  0.0
0.138262813425  0.871619232839  0.493260263727  1  1  1  mag  0.0
0.203926377069  0.805085612347  0.487247457372  1  1  1  mag  0.0
0.336684333347  0.872212000785  0.486428395025  1  1  1  mag  0.0
0.402078244479  0.804714694925  0.482483202273  1  1  1  mag  0.0
0.535203231353  0.868424868414  0.486743192916  1  1  1  mag  0.0
0.599202155854  0.798866936190  0.494506769175  1  1  1  mag  0.0
0.734172917389  0.864350864357  0.500688890484  1  1  1  mag  0.0
0.802434383892  0.798308986462  0.507961127183  1  1  1  mag  0.0
0.936585488137  0.867801681021  0.501571943781  1  1  1  mag  0.0
0.607475339105  0.630484920481  0.637137218101  1  1  1  mag  0.0
0.739565318855  0.703943846290  0.665001583949  1  1  1  mag  0.0
0.735279058390  0.725058685410  0.740732432039  1  1  1  mag  0.0
0.659303531871  0.789443626878  0.755924900367  1  1  1  mag  0.0
0.527493077604  0.715552312180  0.726276068236  1  1  1  mag  0.0
0.532606448975  0.695822343365  0.650391176232  1  1  1  mag  0.0

Pt
0.000
1
0.565319936188  0.545279115401  0.537494294113  1  1  1  mag  0.0

H 
0.000
12
0.474054479868  0.763981907369  0.735173618494  1  1  1  mag  0.0
0.559175292660  0.536861220822  0.661286920580  1  1  1  mag  0.0
0.792362409105  0.655248010496  0.655346764338  1  1  1  mag  0.0
0.790829556285  0.795844565767  0.640097452608  1  1  1  mag  0.0
0.831705124672  0.780792746305  0.759904684644  1  1  1  mag  0.0
0.692701340530  0.633825594040  0.766808505107  1  1  1  mag  0.0
0.654316534120  0.800718865257  0.810300799404  1  1  1  mag  0.0
0.707550150053  0.884776110186  0.734334369833  1  1  1  mag  0.0
0.475515153277  0.623478659822  0.751272992024  1  1  1  mag  0.0
0.436791299590  0.641638257788  0.630298036190  1  1  1  mag  0.0
0.577511862251  0.787858930218  0.625534137186  1  1  1  mag  0.0
0.586137274313  0.423453615955  0.582057484931  1  1  1  mag  0.0
