ATOMIC_SPECIES
C   12.011        C_ONCV_PBE-1.0.upf
Pt  195.084       Pt_ONCV_PBE-1.0.upf
H   1.008         H_ONCV_PBE-1.0.upf

NUMERICAL_ORBITAL
C_gga_7au_100Ry_2s2p1d.orb
Pt_gga_7au_100Ry_4s2p2d1f.orb
H_gga_6au_100Ry_2s1p.orb

LATTICE_CONSTANT
1.8897261258369282 

LATTICE_VECTORS
12.322700000      0.0000000000      0.0000000000      
0.0000000000      20.000000000      0.0000000000      
-6.161540000      0.0000000000      10.671500000      

ATOMIC_POSITIONS
Direct

C
0.0000000000
54
0.0317340000 0.4929600000 0.0311260000 1 1 1 v 0.0 0.0 0.0 mag 0.0 
0.1656130000 0.4919740000 0.0999250000 1 1 1 v 0.0 0.0 0.0 mag 0.0 
0.2342780000 0.4920010000 0.0357980000 1 1 1 v 0.0 0.0 0.0 mag 0.0 
0.3682370000 0.4938370000 0.1044290000 1 1 1 v 0.0 0.0 0.0 mag 0.0 
0.4335260000 0.4916260000 0.0358180000 1 1 1 v 0.0 0.0 0.0 mag 0.0 
0.5662560000 0.4928220000 0.1001230000 1 1 1 v 0.0 0.0 0.0 mag 0.0 
0.6312730000 0.4922590000 0.0312510000 1 1 1 v 0.0 0.0 0.0 mag 0.0 
0.7640300000 0.4922130000 0.0954590000 1 1 1 v 0.0 0.0 0.0 mag 0.0 
0.8293260000 0.4943370000 0.0268390000 1 1 1 v 0.0 0.0 0.0 mag 0.0 
0.9632450000 0.4919600000 0.0954430000 1 1 1 v 0.0 0.0 0.0 mag 0.0 
0.0294770000 0.4876830000 0.2289270000 1 1 1 v 0.0 0.0 0.0 mag 0.0 
0.1621520000 0.4873390000 0.2968880000 1 1 1 v 0.0 0.0 0.0 mag 0.0 
0.2313390000 0.4917730000 0.2333280000 1 1 1 v 0.0 0.0 0.0 mag 0.0 
0.3649220000 0.4979650000 0.3035250000 1 1 1 v 0.0 0.0 0.0 mag 0.0 
0.4348420000 0.4990460000 0.2380750000 1 1 1 v 0.0 0.0 0.0 mag 0.0 
0.5700980000 0.5012900000 0.3037460000 1 1 1 v 0.0 0.0 0.0 mag 0.0 
0.6337240000 0.4956650000 0.2336230000 1 1 1 v 0.0 0.0 0.0 mag 0.0 
0.7666840000 0.4925470000 0.2973060000 1 1 1 v 0.0 0.0 0.0 mag 0.0 
0.8312000000 0.4898230000 0.2292060000 1 1 1 v 0.0 0.0 0.0 mag 0.0 
0.9639770000 0.4863110000 0.2963660000 1 1 1 v 0.0 0.0 0.0 mag 0.0 
0.0309570000 0.4833370000 0.4304440000 1 1 1 v 0.0 0.0 0.0 mag 0.0 
0.1624300000 0.4813120000 0.4985690000 1 1 1 v 0.0 0.0 0.0 mag 0.0 
0.2260320000 0.4843150000 0.4301820000 1 1 1 v 0.0 0.0 0.0 mag 0.0 
0.3555750000 0.4911790000 0.4977030000 1 1 1 v 0.0 0.0 0.0 mag 0.0 
0.4230920000 0.5037180000 0.4355850000 1 1 1 v 0.0 0.0 0.0 mag 0.0 
0.6438340000 0.5097990000 0.4358070000 1 1 1 v 0.0 0.0 0.0 mag 0.0 
0.7747790000 0.5013360000 0.4983680000 1 1 1 v 0.0 0.0 0.0 mag 0.0 
0.8363420000 0.4924860000 0.4307430000 1 1 1 v 0.0 0.0 0.0 mag 0.0 
0.9678890000 0.4864410000 0.4987630000 1 1 1 v 0.0 0.0 0.0 mag 0.0 
0.0348580000 0.4864210000 0.6326440000 1 1 1 v 0.0 0.0 0.0 mag 0.0 
0.1662770000 0.4834130000 0.7007960000 1 1 1 v 0.0 0.0 0.0 mag 0.0 
0.2295100000 0.4814490000 0.6325290000 1 1 1 v 0.0 0.0 0.0 mag 0.0 
0.3614980000 0.4845450000 0.7007090000 1 1 1 v 0.0 0.0 0.0 mag 0.0 
0.4233480000 0.4909160000 0.6328560000 1 1 1 v 0.0 0.0 0.0 mag 0.0 
0.5532950000 0.5027470000 0.6949840000 1 1 1 v 0.0 0.0 0.0 mag 0.0 
0.7743350000 0.5115980000 0.6961210000 1 1 1 v 0.0 0.0 0.0 mag 0.0 
0.8424820000 0.5019600000 0.6335850000 1 1 1 v 0.0 0.0 0.0 mag 0.0 
0.9715620000 0.4926340000 0.7008460000 1 1 1 v 0.0 0.0 0.0 mag 0.0 
0.0353430000 0.4928670000 0.8342000000 1 1 1 v 0.0 0.0 0.0 mag 0.0 
0.1679370000 0.4898920000 0.9021540000 1 1 1 v 0.0 0.0 0.0 mag 0.0 
0.2334270000 0.4863330000 0.8348890000 1 1 1 v 0.0 0.0 0.0 mag 0.0 
0.3663810000 0.4876140000 0.9021800000 1 1 1 v 0.0 0.0 0.0 mag 0.0 
0.4310160000 0.4875220000 0.8340980000 1 1 1 v 0.0 0.0 0.0 mag 0.0 
0.5638600000 0.4920700000 0.8976990000 1 1 1 v 0.0 0.0 0.0 mag 0.0 
0.6274550000 0.4978150000 0.8275460000 1 1 1 v 0.0 0.0 0.0 mag 0.0 
0.7626230000 0.4997060000 0.8932020000 1 1 1 v 0.0 0.0 0.0 mag 0.0 
0.8325430000 0.5026460000 0.8277320000 1 1 1 v 0.0 0.0 0.0 mag 0.0 
0.9661350000 0.4962140000 0.8978120000 1 1 1 v 0.0 0.0 0.0 mag 0.0 
0.6041400000 0.6842790000 0.5707680000 1 1 1 v 0.0 0.0 0.0 mag 0.0 
0.7417850000 0.7034610000 0.6508100000 1 1 1 v 0.0 0.0 0.0 mag 0.0 
0.7525070000 0.7766520000 0.6911040000 1 1 1 v 0.0 0.0 0.0 mag 0.0 
0.6791510000 0.7899630000 0.7592250000 1 1 1 v 0.0 0.0 0.0 mag 0.0 
0.5426850000 0.7664450000 0.6834410000 1 1 1 v 0.0 0.0 0.0 mag 0.0 
0.5346470000 0.6934020000 0.6432240000 1 1 1 v 0.0 0.0 0.0 mag 0.0 

Pt
0.0000000000
1
0.5971180000 0.5246580000 0.5655990000 1 1 1 v 0.0 0.0 0.0 mag 0.0 

H
0.0000000000
12
0.4951700000 0.7735060000 0.7380110000 1 1 1 v 0.0 0.0 0.0 mag 0.0 
0.5593900000 0.7145910000 0.4845690000 1 1 1 v 0.0 0.0 0.0 mag 0.0 
0.7924390000 0.6946010000 0.5997880000 1 1 1 v 0.0 0.0 0.0 mag 0.0 
0.7857890000 0.6709270000 0.7342580000 1 1 1 v 0.0 0.0 0.0 mag 0.0 
0.8512600000 0.7909210000 0.7509240000 1 1 1 v 0.0 0.0 0.0 mag 0.0 
0.7149230000 0.8083900000 0.6068010000 1 1 1 v 0.0 0.0 0.0 mag 0.0 
0.6824240000 0.8434950000 0.7809140000 1 1 1 v 0.0 0.0 0.0 mag 0.0 
0.7253750000 0.7634800000 0.8498040000 1 1 1 v 0.0 0.0 0.0 mag 0.0 
0.4921470000 0.7975980000 0.5987400000 1 1 1 v 0.0 0.0 0.0 mag 0.0 
0.4365540000 0.6771980000 0.5868200000 1 1 1 v 0.0 0.0 0.0 mag 0.0 
0.5779330000 0.6609280000 0.7267820000 1 1 1 v 0.0 0.0 0.0 mag 0.0 
0.5961460000 0.6316160000 0.5385210000 1 1 1 v 0.0 0.0 0.0 mag 0.0 

