ATOMIC_SPECIES
H   1.008         H_ONCV_PBE-1.0.upf
Au  196.966569    Au_ONCV_PBE-1.0.upf

NUMERICAL_ORBITAL
H_gga_6au_100Ry_2s1p.orb
Au_gga_7au_100Ry_4s2p2d1f.orb

LATTICE_CONSTANT
1.8897261258369282 

LATTICE_VECTORS
11.535200000      0.0000000000      0.0000000000      
0.0000000000      19.063800000      0.0000000000      
-5.767600000      0.0000000000      9.9897700000      

ATOMIC_POSITIONS
Direct

H
0.0000000000
2
0.5003780000 0.5926660000 0.6473570000 1 1 1 v 0.0 0.0 0.0 mag 0.0 
0.4351620000 0.5938940000 0.5816420000 1 1 1 v 0.0 0.0 0.0 mag 0.0 

Au
0.0000000000
64
0.0400000000 0.1000000000 0.0400000000 0 0 0 v 0.0 0.0 0.0 mag 0.0 
0.2900000000 0.1000000000 0.0400000000 0 0 0 v 0.0 0.0 0.0 mag 0.0 
0.5400000000 0.1000000000 0.0400000000 0 0 0 v 0.0 0.0 0.0 mag 0.0 
0.7900000000 0.1000000000 0.0400000000 0 0 0 v 0.0 0.0 0.0 mag 0.0 
0.0400000000 0.1000000000 0.2900000000 0 0 0 v 0.0 0.0 0.0 mag 0.0 
0.2900000000 0.1000000000 0.2900000000 0 0 0 v 0.0 0.0 0.0 mag 0.0 
0.5400000000 0.1000000000 0.2900000000 0 0 0 v 0.0 0.0 0.0 mag 0.0 
0.7900000000 0.1000000000 0.2900000000 0 0 0 v 0.0 0.0 0.0 mag 0.0 
0.0400000000 0.1000000000 0.5400000000 0 0 0 v 0.0 0.0 0.0 mag 0.0 
0.2900000000 0.1000000000 0.5400000000 0 0 0 v 0.0 0.0 0.0 mag 0.0 
0.5400000000 0.1000000000 0.5400000000 0 0 0 v 0.0 0.0 0.0 mag 0.0 
0.7900000000 0.1000000000 0.5400000000 0 0 0 v 0.0 0.0 0.0 mag 0.0 
0.0400000000 0.1000000000 0.7900000000 0 0 0 v 0.0 0.0 0.0 mag 0.0 
0.2900000000 0.1000000000 0.7900000000 0 0 0 v 0.0 0.0 0.0 mag 0.0 
0.5400000000 0.1000000000 0.7900000000 0 0 0 v 0.0 0.0 0.0 mag 0.0 
0.7900000000 0.1000000000 0.7900000000 0 0 0 v 0.0 0.0 0.0 mag 0.0 
0.1233330000 0.2235120000 0.2066670000 0 0 0 v 0.0 0.0 0.0 mag 0.0 
0.3733330000 0.2235120000 0.2066670000 0 0 0 v 0.0 0.0 0.0 mag 0.0 
0.6233330000 0.2235120000 0.2066670000 0 0 0 v 0.0 0.0 0.0 mag 0.0 
0.8733330000 0.2235120000 0.2066670000 0 0 0 v 0.0 0.0 0.0 mag 0.0 
0.1233330000 0.2235120000 0.4566670000 0 0 0 v 0.0 0.0 0.0 mag 0.0 
0.3733330000 0.2235120000 0.4566670000 0 0 0 v 0.0 0.0 0.0 mag 0.0 
0.6233330000 0.2235120000 0.4566670000 0 0 0 v 0.0 0.0 0.0 mag 0.0 
0.8733330000 0.2235120000 0.4566670000 0 0 0 v 0.0 0.0 0.0 mag 0.0 
0.1233330000 0.2235120000 0.7066670000 0 0 0 v 0.0 0.0 0.0 mag 0.0 
0.3733330000 0.2235120000 0.7066670000 0 0 0 v 0.0 0.0 0.0 mag 0.0 
0.6233330000 0.2235120000 0.7066670000 0 0 0 v 0.0 0.0 0.0 mag 0.0 
0.8733330000 0.2235120000 0.7066670000 0 0 0 v 0.0 0.0 0.0 mag 0.0 
0.1233330000 0.2235120000 0.9566670000 0 0 0 v 0.0 0.0 0.0 mag 0.0 
0.3733330000 0.2235120000 0.9566670000 0 0 0 v 0.0 0.0 0.0 mag 0.0 
0.6233330000 0.2235120000 0.9566670000 0 0 0 v 0.0 0.0 0.0 mag 0.0 
0.8733330000 0.2235120000 0.9566670000 0 0 0 v 0.0 0.0 0.0 mag 0.0 
0.2060900000 0.3475150000 0.1215640000 1 1 1 v 0.0 0.0 0.0 mag 0.0 
0.4577110000 0.3476070000 0.1235620000 1 1 1 v 0.0 0.0 0.0 mag 0.0 
0.7067370000 0.3476000000 0.1233600000 1 1 1 v 0.0 0.0 0.0 mag 0.0 
0.9563300000 0.3477240000 0.1238140000 1 1 1 v 0.0 0.0 0.0 mag 0.0 
0.2054980000 0.3464850000 0.3708350000 1 1 1 v 0.0 0.0 0.0 mag 0.0 
0.4553320000 0.3464420000 0.3710440000 1 1 1 v 0.0 0.0 0.0 mag 0.0 
0.7065550000 0.3474730000 0.3735470000 1 1 1 v 0.0 0.0 0.0 mag 0.0 
0.9567820000 0.3476080000 0.3733880000 1 1 1 v 0.0 0.0 0.0 mag 0.0 
0.2059820000 0.3465100000 0.6241550000 1 1 1 v 0.0 0.0 0.0 mag 0.0 
0.4567510000 0.3459070000 0.6233960000 1 1 1 v 0.0 0.0 0.0 mag 0.0 
0.7090670000 0.3464380000 0.6247870000 1 1 1 v 0.0 0.0 0.0 mag 0.0 
0.9565560000 0.3476080000 0.6223890000 1 1 1 v 0.0 0.0 0.0 mag 0.0 
0.2064950000 0.3476240000 0.8736270000 1 1 1 v 0.0 0.0 0.0 mag 0.0 
0.4560070000 0.3465000000 0.8741980000 1 1 1 v 0.0 0.0 0.0 mag 0.0 
0.7093010000 0.3464650000 0.8746580000 1 1 1 v 0.0 0.0 0.0 mag 0.0 
0.9585560000 0.3475040000 0.8740330000 1 1 1 v 0.0 0.0 0.0 mag 0.0 
0.0407350000 0.4755700000 0.0395600000 1 1 1 v 0.0 0.0 0.0 mag 0.0 
0.2902270000 0.4754460000 0.0393290000 1 1 1 v 0.0 0.0 0.0 mag 0.0 
0.5404500000 0.4753890000 0.0411710000 1 1 1 v 0.0 0.0 0.0 mag 0.0 
0.7916830000 0.4754890000 0.0411740000 1 1 1 v 0.0 0.0 0.0 mag 0.0 
0.0391030000 0.4755020000 0.2886030000 1 1 1 v 0.0 0.0 0.0 mag 0.0 
0.2898440000 0.4741290000 0.2894030000 1 1 1 v 0.0 0.0 0.0 mag 0.0 
0.5399580000 0.4751820000 0.2888880000 1 1 1 v 0.0 0.0 0.0 mag 0.0 
0.7901560000 0.4749300000 0.2901430000 1 1 1 v 0.0 0.0 0.0 mag 0.0 
0.0391380000 0.4753800000 0.5398560000 1 1 1 v 0.0 0.0 0.0 mag 0.0 
0.2860240000 0.4694330000 0.5375030000 1 1 1 v 0.0 0.0 0.0 mag 0.0 
0.5421680000 0.4686900000 0.5380090000 1 1 1 v 0.0 0.0 0.0 mag 0.0 
0.7913790000 0.4751730000 0.5403230000 1 1 1 v 0.0 0.0 0.0 mag 0.0 
0.0409730000 0.4754410000 0.7900830000 1 1 1 v 0.0 0.0 0.0 mag 0.0 
0.2909010000 0.4743990000 0.7893920000 1 1 1 v 0.0 0.0 0.0 mag 0.0 
0.5427810000 0.4693970000 0.7942900000 1 1 1 v 0.0 0.0 0.0 mag 0.0 
0.7908640000 0.4740850000 0.7904050000 1 1 1 v 0.0 0.0 0.0 mag 0.0 

