ATOMIC_SPECIES
C   12.011  C_ONCV_PBE-1.0.upf
Fe   55.845  Fe_ONCV_PBE-1.0.upf
K   39.098  K_ONCV_PBE-1.0.upf
O   15.999  O_ONCV_PBE-1.0.upf

NUMERICAL_ORBITAL
C_gga_7au_100Ry_2s2p1d.orb
Fe_gga_8au_100Ry_4s2p2d1f.orb
K_gga_9au_100Ry_4s2p1d.orb
O_gga_7au_100Ry_2s2p1d.orb

LATTICE_CONSTANT
1.889726

LATTICE_VECTORS
9.979800000000  0.000000000000  0.000000000000
-0.76400300000  12.66177100000  0.000000000000
0.000000000000  0.000000000000  27.54040000000

ATOMIC_POSITIONS
Direct

C 
0.000
36
0.474261804092  0.737598039807  0.266109005680  1  1  1  mag  0.0
0.251070347071  0.339259381296  0.263489337428  1  1  1  mag  0.0
0.414820011376  0.944957639437  0.262005725562  1  1  1  mag  0.0
0.008105825262  0.536855582685  0.231936480685  1  1  1  mag  0.0
0.180453326963  0.129940121297  0.225516279704  1  1  1  mag  0.0
0.269472420642  0.655533330394  0.202499981872  1  1  1  mag  0.0
0.440993082529  0.248682963237  0.192405538559  1  1  1  mag  0.0
0.032964608778  0.854923231172  0.155041226983  1  1  1  mag  0.0
0.208399863974  0.450605915919  0.145669262351  1  1  1  mag  0.0
0.293450446728  0.975139245834  0.131955214189  1  1  1  mag  0.0
0.468540000000  0.568980000000  0.122034000000  0  0  0  mag  0.0
0.061885000000  0.176160000000  0.085036000000  0  0  0  mag  0.0
0.233720000000  0.768360000000  0.072877000000  0  0  0  mag  0.0
0.323335000000  0.298390000000  0.053386000000  0  0  0  mag  0.0
0.491475000000  0.891710000000  0.046768000000  0  0  0  mag  0.0
0.090805000000  0.484140000000  0.016695000000  0  0  0  mag  0.0
0.253665000000  0.089200000000  0.014833000000  0  0  0  mag  0.0
0.029445000000  0.690170000000  0.006746000000  0  0  0  mag  0.0
0.984305702740  0.740454589921  0.265258536311  1  1  1  mag  0.0
0.750492692150  0.335858342045  0.263166474438  1  1  1  mag  0.0
0.913088747190  0.945420089436  0.263762501085  1  1  1  mag  0.0
0.512865322274  0.536008141957  0.229847088697  1  1  1  mag  0.0
0.680231772605  0.126508309909  0.223598823562  1  1  1  mag  0.0
0.769232881220  0.653107156875  0.200007232508  1  1  1  mag  0.0
0.942074301205  0.248410771105  0.193046942764  1  1  1  mag  0.0
0.533789776169  0.856083158492  0.155860488390  1  1  1  mag  0.0
0.708817741665  0.449917195740  0.145816007420  1  1  1  mag  0.0
0.794848457144  0.974452435172  0.132280085644  1  1  1  mag  0.0
0.968540000000  0.568980000000  0.122034000000  0  0  0  mag  0.0
0.561885000000  0.176160000000  0.085036000000  0  0  0  mag  0.0
0.733720000000  0.768360000000  0.072877000000  0  0  0  mag  0.0
0.823335000000  0.298390000000  0.053386000000  0  0  0  mag  0.0
0.991475000000  0.891710000000  0.046768000000  0  0  0  mag  0.0
0.590805000000  0.484140000000  0.016695000000  0  0  0  mag  0.0
0.753665000000  0.089200000000  0.014833000000  0  0  0  mag  0.0
0.529445000000  0.690170000000  0.006746000000  0  0  0  mag  0.0

Fe
0.000
80
0.370795863996  0.613172829436  0.258744766125  1  1  1  mag  0.0
0.314396541375  0.811600183665  0.257009940222  1  1  1  mag  0.0
0.252876734905  0.009390907592  0.256031116841  1  1  1  mag  0.0
0.421974464978  0.408534529247  0.251564339736  1  1  1  mag  0.0
0.069812512341  0.869332462472  0.251196633297  1  1  1  mag  0.0
0.336618684066  0.214746854641  0.251315346242  1  1  1  mag  0.0
0.125349124947  0.661775076466  0.250157081778  1  1  1  mag  0.0
0.176221146045  0.466178596336  0.245360475989  1  1  1  mag  0.0
0.091517240149  0.263002731027  0.243669081607  1  1  1  mag  0.0
0.003186721448  0.070391720764  0.242848221726  1  1  1  mag  0.0
0.394832811995  0.931504164800  0.187829271086  1  1  1  mag  0.0
0.448356542538  0.728949646885  0.184968925154  1  1  1  mag  0.0
0.277971510308  0.333868159664  0.183108185680  1  1  1  mag  0.0
0.361445780905  0.533420586638  0.179034395669  1  1  1  mag  0.0
0.142141015976  0.982798664605  0.177486959798  1  1  1  mag  0.0
0.330288290747  0.118666082233  0.175876869003  1  1  1  mag  0.0
0.201629635394  0.783003786217  0.174427600681  1  1  1  mag  0.0
0.116194351399  0.575625677853  0.171410571801  1  1  1  mag  0.0
0.032535229448  0.383169652595  0.170260906205  1  1  1  mag  0.0
0.089348079274  0.174470484221  0.164328503193  1  1  1  mag  0.0
0.413690000000  0.250300000000  0.113754000000  0  0  0  mag  0.0
0.470495000000  0.040420000000  0.106302000000  0  0  0  mag  0.0
0.385750000000  0.849260000000  0.106074000000  0  0  0  mag  0.0
0.303320000000  0.644910000000  0.104954000000  0  0  0  mag  0.0
0.170965000000  0.307220000000  0.102030000000  0  0  0  mag  0.0
0.359120000000  0.442050000000  0.100183000000  0  0  0  mag  0.0
0.142015000000  0.892340000000  0.098008000000  0  0  0  mag  0.0
0.056750000000  0.698360000000  0.095883000000  0  0  0  mag  0.0
0.224665000000  0.091190000000  0.093857000000  0  0  0  mag  0.0
0.108215000000  0.496030000000  0.089800000000  0  0  0  mag  0.0
0.000965000000  0.357480000000  0.035600000000  0  0  0  mag  0.0
0.412835000000  0.164590000000  0.034488000000  0  0  0  mag  0.0
0.324735000000  0.960470000000  0.032020000000  0  0  0  mag  0.0
0.437865000000  0.564030000000  0.028291000000  0  0  0  mag  0.0
0.383235000000  0.762780000000  0.027142000000  0  0  0  mag  0.0
0.167870000000  0.214030000000  0.026643000000  0  0  0  mag  0.0
0.081110000000  0.019460000000  0.024240000000  0  0  0  mag  0.0
0.189555000000  0.618540000000  0.021965000000  0  0  0  mag  0.0
0.252150000000  0.419440000000  0.021922000000  0  0  0  mag  0.0
0.131805000000  0.812570000000  0.018392000000  0  0  0  mag  0.0
0.866074627843  0.621501761003  0.259109131640  1  1  1  mag  0.0
0.818696392280  0.811758631317  0.264277007544  1  1  1  mag  0.0
0.750382831647  0.007970242442  0.256973625838  1  1  1  mag  0.0
0.922748143678  0.405628613554  0.252342874170  1  1  1  mag  0.0
0.566340097519  0.867073488093  0.247452240522  1  1  1  mag  0.0
0.835031808657  0.210862094347  0.251178736254  1  1  1  mag  0.0
0.625013534796  0.661684800656  0.251785209246  1  1  1  mag  0.0
0.676323284398  0.461652522359  0.243224313896  1  1  1  mag  0.0
0.591673709919  0.260969702138  0.241962845344  1  1  1  mag  0.0
0.501828235463  0.071719434792  0.242264251588  1  1  1  mag  0.0
0.893968811730  0.928062565810  0.189193488994  1  1  1  mag  0.0
0.947316285587  0.731066490948  0.186692852979  1  1  1  mag  0.0
0.779455489742  0.333102430393  0.182936113580  1  1  1  mag  0.0
0.863910011372  0.533329021177  0.179934770746  1  1  1  mag  0.0
0.644288451067  0.984082888476  0.177233376601  1  1  1  mag  0.0
0.832781107136  0.117357905356  0.175645423182  1  1  1  mag  0.0
0.701370996878  0.783497427574  0.176075865605  1  1  1  mag  0.0
0.616114940489  0.574902585658  0.171433774127  1  1  1  mag  0.0
0.532083887188  0.383178922804  0.169651013105  1  1  1  mag  0.0
0.589010316545  0.174417606808  0.163307042655  1  1  1  mag  0.0
0.913690000000  0.250300000000  0.113754000000  0  0  0  mag  0.0
0.970495000000  0.040420000000  0.106302000000  0  0  0  mag  0.0
0.885750000000  0.849260000000  0.106074000000  0  0  0  mag  0.0
0.803320000000  0.644910000000  0.104954000000  0  0  0  mag  0.0
0.670965000000  0.307220000000  0.102030000000  0  0  0  mag  0.0
0.859120000000  0.442050000000  0.100183000000  0  0  0  mag  0.0
0.642015000000  0.892340000000  0.098008000000  0  0  0  mag  0.0
0.556750000000  0.698360000000  0.095883000000  0  0  0  mag  0.0
0.724665000000  0.091190000000  0.093857000000  0  0  0  mag  0.0
0.608215000000  0.496030000000  0.089800000000  0  0  0  mag  0.0
0.500965000000  0.357480000000  0.035600000000  0  0  0  mag  0.0
0.912835000000  0.164590000000  0.034488000000  0  0  0  mag  0.0
0.824735000000  0.960470000000  0.032020000000  0  0  0  mag  0.0
0.937865000000  0.564030000000  0.028291000000  0  0  0  mag  0.0
0.883235000000  0.762780000000  0.027142000000  0  0  0  mag  0.0
0.667870000000  0.214030000000  0.026643000000  0  0  0  mag  0.0
0.581110000000  0.019460000000  0.024240000000  0  0  0  mag  0.0
0.689555000000  0.618540000000  0.021965000000  0  0  0  mag  0.0
0.752150000000  0.419440000000  0.021922000000  0  0  0  mag  0.0
0.631805000000  0.812570000000  0.018392000000  0  0  0  mag  0.0

K 
0.000
2
0.579882480377  0.318317674195  0.350870680570  1  1  1  mag  0.0
0.597186170435  0.796842173776  0.357234317534  1  1  1  mag  0.0

O 
0.000
1
0.748201477766  0.689677169478  0.303823198390  1  1  1  mag  0.0
