ATOMIC_SPECIES
C   12.011  C_ONCV_PBE-1.0.upf
Fe   55.845  Fe_ONCV_PBE-1.0.upf
K   39.098  K_ONCV_PBE-1.0.upf
O   15.999  O_ONCV_PBE-1.0.upf

NUMERICAL_ORBITAL
C_gga_7au_100Ry_2s2p1d.orb
Fe_gga_8au_100Ry_4s2p2d1f.orb
K_gga_9au_100Ry_4s2p1d.orb
O_gga_7au_100Ry_2s2p1d.orb

LATTICE_CONSTANT
1.889726

LATTICE_VECTORS
9.979800000000  0.000000000000  0.000000000000
-0.76400300000  12.66177100000  0.000000000000
0.000000000000  0.000000000000  27.54040000000

ATOMIC_POSITIONS
Direct

C 
0.000
36
0.475418617316  0.736852784175  0.267131199259  1  1  1  mag  0.0
0.250937465404  0.338400825935  0.263029635306  1  1  1  mag  0.0
0.415460612173  0.944110692612  0.261769964825  1  1  1  mag  0.0
0.008523284379  0.536097739336  0.231733734231  1  1  1  mag  0.0
0.180168359871  0.128640045377  0.225304824635  1  1  1  mag  0.0
0.269960910037  0.655200785860  0.203035053319  1  1  1  mag  0.0
0.441398513297  0.248062548779  0.192917266251  1  1  1  mag  0.0
0.032934096198  0.854059905043  0.154842049360  1  1  1  mag  0.0
0.208623865946  0.450516168184  0.145753075100  1  1  1  mag  0.0
0.293555168391  0.975004743415  0.131917018812  1  1  1  mag  0.0
0.468540000000  0.568980000000  0.122034000000  0  0  0  mag  0.0
0.061885000000  0.176160000000  0.085036000000  0  0  0  mag  0.0
0.233720000000  0.768360000000  0.072877000000  0  0  0  mag  0.0
0.323335000000  0.298390000000  0.053386000000  0  0  0  mag  0.0
0.491475000000  0.891710000000  0.046768000000  0  0  0  mag  0.0
0.090805000000  0.484140000000  0.016695000000  0  0  0  mag  0.0
0.253665000000  0.089200000000  0.014833000000  0  0  0  mag  0.0
0.029445000000  0.690170000000  0.006746000000  0  0  0  mag  0.0
0.984285217716  0.739296671392  0.266141557896  1  1  1  mag  0.0
0.750715697806  0.336751293933  0.263685366652  1  1  1  mag  0.0
0.912684844533  0.944432436103  0.263841885958  1  1  1  mag  0.0
0.513252653089  0.535477317696  0.230069879856  1  1  1  mag  0.0
0.680288278547  0.126990900270  0.224333062108  1  1  1  mag  0.0
0.768994631743  0.652732344505  0.200879606943  1  1  1  mag  0.0
0.942330364686  0.248300429504  0.193195739869  1  1  1  mag  0.0
0.533880466276  0.855435854317  0.155844070255  1  1  1  mag  0.0
0.708515990318  0.449725634288  0.146145598306  1  1  1  mag  0.0
0.795072541598  0.974561158505  0.132286624616  1  1  1  mag  0.0
0.968540000000  0.568980000000  0.122034000000  0  0  0  mag  0.0
0.561885000000  0.176160000000  0.085036000000  0  0  0  mag  0.0
0.733720000000  0.768360000000  0.072877000000  0  0  0  mag  0.0
0.823335000000  0.298390000000  0.053386000000  0  0  0  mag  0.0
0.991475000000  0.891710000000  0.046768000000  0  0  0  mag  0.0
0.590805000000  0.484140000000  0.016695000000  0  0  0  mag  0.0
0.753665000000  0.089200000000  0.014833000000  0  0  0  mag  0.0
0.529445000000  0.690170000000  0.006746000000  0  0  0  mag  0.0

Fe
0.000
80
0.371782511743  0.612866573642  0.259030462740  1  1  1  mag  0.0
0.314783599481  0.810372976718  0.257097306044  1  1  1  mag  0.0
0.253284975447  0.008370740212  0.255995639893  1  1  1  mag  0.0
0.422720271704  0.408078096446  0.252322472272  1  1  1  mag  0.0
0.069449380095  0.868349691920  0.251817200505  1  1  1  mag  0.0
0.336075139624  0.213393436613  0.251169422462  1  1  1  mag  0.0
0.125761218348  0.661211172517  0.250525540642  1  1  1  mag  0.0
0.176380967105  0.465585871127  0.245541764892  1  1  1  mag  0.0
0.091376966718  0.262163017083  0.243674959547  1  1  1  mag  0.0
0.002875457851  0.069473553396  0.242820867538  1  1  1  mag  0.0
0.394906394194  0.930748840173  0.187778511798  1  1  1  mag  0.0
0.447956729732  0.728190017924  0.184720183632  1  1  1  mag  0.0
0.278233794117  0.333701996644  0.183405022892  1  1  1  mag  0.0
0.361440796394  0.532942088361  0.179282709153  1  1  1  mag  0.0
0.142224786994  0.981996403707  0.177690120692  1  1  1  mag  0.0
0.330468896582  0.118117256662  0.175756074565  1  1  1  mag  0.0
0.201430678512  0.782339981847  0.174478917195  1  1  1  mag  0.0
0.116498474501  0.575764595501  0.171465269549  1  1  1  mag  0.0
0.032675607366  0.383238068033  0.170307648380  1  1  1  mag  0.0
0.089162025186  0.174054201416  0.164313980086  1  1  1  mag  0.0
0.413690000000  0.250300000000  0.113754000000  0  0  0  mag  0.0
0.470495000000  0.040420000000  0.106302000000  0  0  0  mag  0.0
0.385750000000  0.849260000000  0.106074000000  0  0  0  mag  0.0
0.303320000000  0.644910000000  0.104954000000  0  0  0  mag  0.0
0.170965000000  0.307220000000  0.102030000000  0  0  0  mag  0.0
0.359120000000  0.442050000000  0.100183000000  0  0  0  mag  0.0
0.142015000000  0.892340000000  0.098008000000  0  0  0  mag  0.0
0.056750000000  0.698360000000  0.095883000000  0  0  0  mag  0.0
0.224665000000  0.091190000000  0.093857000000  0  0  0  mag  0.0
0.108215000000  0.496030000000  0.089800000000  0  0  0  mag  0.0
0.000965000000  0.357480000000  0.035600000000  0  0  0  mag  0.0
0.412835000000  0.164590000000  0.034488000000  0  0  0  mag  0.0
0.324735000000  0.960470000000  0.032020000000  0  0  0  mag  0.0
0.437865000000  0.564030000000  0.028291000000  0  0  0  mag  0.0
0.383235000000  0.762780000000  0.027142000000  0  0  0  mag  0.0
0.167870000000  0.214030000000  0.026643000000  0  0  0  mag  0.0
0.081110000000  0.019460000000  0.024240000000  0  0  0  mag  0.0
0.189555000000  0.618540000000  0.021965000000  0  0  0  mag  0.0
0.252150000000  0.419440000000  0.021922000000  0  0  0  mag  0.0
0.131805000000  0.812570000000  0.018392000000  0  0  0  mag  0.0
0.867899180752  0.619976016380  0.259158849245  1  1  1  mag  0.0
0.818857950558  0.810140084947  0.265044718459  1  1  1  mag  0.0
0.750354314562  0.006822607238  0.256366635691  1  1  1  mag  0.0
0.923105370157  0.404927865341  0.251906491024  1  1  1  mag  0.0
0.566471760660  0.865573893347  0.246855605714  1  1  1  mag  0.0
0.835247392437  0.211288636998  0.251448001522  1  1  1  mag  0.0
0.625916474486  0.660123274448  0.252725639859  1  1  1  mag  0.0
0.676721897674  0.460000824757  0.240070830438  1  1  1  mag  0.0
0.591050880649  0.261544678398  0.243825558577  1  1  1  mag  0.0
0.501994054400  0.070812922045  0.241883214772  1  1  1  mag  0.0
0.894036762332  0.927432113629  0.189155996280  1  1  1  mag  0.0
0.947141038524  0.730759466783  0.186837193798  1  1  1  mag  0.0
0.779468242420  0.331587045833  0.182587942075  1  1  1  mag  0.0
0.863684037484  0.533515504277  0.179712905303  1  1  1  mag  0.0
0.644241924624  0.983786943059  0.177067886492  1  1  1  mag  0.0
0.832556609773  0.117355792879  0.175847661930  1  1  1  mag  0.0
0.701114549808  0.782666165777  0.176300544193  1  1  1  mag  0.0
0.615864830346  0.575855245085  0.171192613857  1  1  1  mag  0.0
0.531356982413  0.382101643160  0.169519294194  1  1  1  mag  0.0
0.589202780001  0.174618592435  0.164026435464  1  1  1  mag  0.0
0.913690000000  0.250300000000  0.113754000000  0  0  0  mag  0.0
0.970495000000  0.040420000000  0.106302000000  0  0  0  mag  0.0
0.885750000000  0.849260000000  0.106074000000  0  0  0  mag  0.0
0.803320000000  0.644910000000  0.104954000000  0  0  0  mag  0.0
0.670965000000  0.307220000000  0.102030000000  0  0  0  mag  0.0
0.859120000000  0.442050000000  0.100183000000  0  0  0  mag  0.0
0.642015000000  0.892340000000  0.098008000000  0  0  0  mag  0.0
0.556750000000  0.698360000000  0.095883000000  0  0  0  mag  0.0
0.724665000000  0.091190000000  0.093857000000  0  0  0  mag  0.0
0.608215000000  0.496030000000  0.089800000000  0  0  0  mag  0.0
0.500965000000  0.357480000000  0.035600000000  0  0  0  mag  0.0
0.912835000000  0.164590000000  0.034488000000  0  0  0  mag  0.0
0.824735000000  0.960470000000  0.032020000000  0  0  0  mag  0.0
0.937865000000  0.564030000000  0.028291000000  0  0  0  mag  0.0
0.883235000000  0.762780000000  0.027142000000  0  0  0  mag  0.0
0.667870000000  0.214030000000  0.026643000000  0  0  0  mag  0.0
0.581110000000  0.019460000000  0.024240000000  0  0  0  mag  0.0
0.689555000000  0.618540000000  0.021965000000  0  0  0  mag  0.0
0.752150000000  0.419440000000  0.021922000000  0  0  0  mag  0.0
0.631805000000  0.812570000000  0.018392000000  0  0  0  mag  0.0

K 
0.000
2
0.710763674902  0.490355522105  0.349381626127  1  1  1  mag  0.0
0.608091586923  0.827194314154  0.355238635649  1  1  1  mag  0.0

O 
0.000
1
0.748037452949  0.684364562702  0.306806188214  1  1  1  mag  0.0
