ATOMIC_SPECIES
Cu   63.546  Cu_ONCV_PBE-1.0.upf
Ag  107.868  Ag_ONCV_PBE-1.0.upf

NUMERICAL_ORBITAL
Cu_gga_8au_100Ry_4s2p2d1f.orb
Ag_gga_7au_100Ry_4s2p2d1f.orb

LATTICE_CONSTANT
1.889726

LATTICE_VECTORS
7.229919703651  0.000000000000  0.000000000000
0.000000000000  7.229919703651  0.000000000000
0.000000000000  0.000000000000  19.99999918021

ATOMIC_POSITIONS
Direct

Cu
0.000
32
0.125000000000  0.125000000000  0.045187000000  0  0  0  mag  0.0
0.125000000000  0.375000000000  0.135561000000  0  0  0  mag  0.0
0.375000000000  0.125000000000  0.135561000000  0  0  0  mag  0.0
0.375000000000  0.375000000000  0.045187000000  0  0  0  mag  0.0
0.625000000000  0.125000000000  0.045187000000  0  0  0  mag  0.0
0.625000000000  0.375000000000  0.135561000000  0  0  0  mag  0.0
0.875000000000  0.125000000000  0.135561000000  0  0  0  mag  0.0
0.875000000000  0.375000000000  0.045187000000  0  0  0  mag  0.0
0.125000000000  0.625000000000  0.045187000000  0  0  0  mag  0.0
0.125000000000  0.875000000000  0.135561000000  0  0  0  mag  0.0
0.375000000000  0.625000000000  0.135561000000  0  0  0  mag  0.0
0.375000000000  0.875000000000  0.045187000000  0  0  0  mag  0.0
0.625000000000  0.625000000000  0.045187000000  0  0  0  mag  0.0
0.625000000000  0.875000000000  0.135561000000  0  0  0  mag  0.0
0.875000000000  0.625000000000  0.135561000000  0  0  0  mag  0.0
0.875000000000  0.875000000000  0.045187000000  0  0  0  mag  0.0
0.125000000000  0.125000000000  0.225935000000  1  1  1  mag  0.0
0.125000000000  0.375000000000  0.316309000000  1  1  1  mag  0.0
0.375000000000  0.125000000000  0.316309000000  1  1  1  mag  0.0
0.375000000000  0.375000000000  0.225935000000  1  1  1  mag  0.0
0.625000000000  0.125000000000  0.225935000000  1  1  1  mag  0.0
0.625000000000  0.375000000000  0.316309000000  1  1  1  mag  0.0
0.875000000000  0.125000000000  0.316309000000  1  1  1  mag  0.0
0.875000000000  0.375000000000  0.225935000000  1  1  1  mag  0.0
0.125000000000  0.625000000000  0.225935000000  1  1  1  mag  0.0
0.125000000000  0.875000000000  0.316309000000  1  1  1  mag  0.0
0.375000000000  0.625000000000  0.316309000000  1  1  1  mag  0.0
0.375000000000  0.875000000000  0.225935000000  1  1  1  mag  0.0
0.625000000000  0.625000000000  0.225935000000  1  1  1  mag  0.0
0.625000000000  0.875000000000  0.316309000000  1  1  1  mag  0.0
0.875000000000  0.625000000000  0.316309000000  1  1  1  mag  0.0
0.875000000000  0.875000000000  0.225935000000  1  1  1  mag  0.0

Ag
0.000
1
0.367563000000  0.372058000000  0.415283000000  1  1  1  mag  0.0
