ATOMIC_SPECIES
H   1.008         H_ONCV_PBE-1.0.upf
Au  196.966569    Au_ONCV_PBE-1.0.upf

NUMERICAL_ORBITAL
H_gga_6au_100Ry_2s1p.orb
Au_gga_7au_100Ry_4s2p2d1f.orb

LATTICE_CONSTANT
1.8897261258369282 

LATTICE_VECTORS
11.535200000      0.0000000000      0.0000000000      
0.0000000000      19.063800000      0.0000000000      
-5.767600000      0.0000000000      9.9897700000      

ATOMIC_POSITIONS
Direct

H
0.0000000000
2
0.6064810000 0.5256340000 0.7092890000 1 1 1 v 0.0 0.0 0.0 mag 0.0 
0.3727030000 0.5266230000 0.4778180000 1 1 1 v 0.0 0.0 0.0 mag 0.0 

Au
0.0000000000
64
0.0400000000 0.1000000000 0.0400000000 0 0 0 v 0.0 0.0 0.0 mag 0.0 
0.2900000000 0.1000000000 0.0400000000 0 0 0 v 0.0 0.0 0.0 mag 0.0 
0.5400000000 0.1000000000 0.0400000000 0 0 0 v 0.0 0.0 0.0 mag 0.0 
0.7900000000 0.1000000000 0.0400000000 0 0 0 v 0.0 0.0 0.0 mag 0.0 
0.0400000000 0.1000000000 0.2900000000 0 0 0 v 0.0 0.0 0.0 mag 0.0 
0.2900000000 0.1000000000 0.2900000000 0 0 0 v 0.0 0.0 0.0 mag 0.0 
0.5400000000 0.1000000000 0.2900000000 0 0 0 v 0.0 0.0 0.0 mag 0.0 
0.7900000000 0.1000000000 0.2900000000 0 0 0 v 0.0 0.0 0.0 mag 0.0 
0.0400000000 0.1000000000 0.5400000000 0 0 0 v 0.0 0.0 0.0 mag 0.0 
0.2900000000 0.1000000000 0.5400000000 0 0 0 v 0.0 0.0 0.0 mag 0.0 
0.5400000000 0.1000000000 0.5400000000 0 0 0 v 0.0 0.0 0.0 mag 0.0 
0.7900000000 0.1000000000 0.5400000000 0 0 0 v 0.0 0.0 0.0 mag 0.0 
0.0400000000 0.1000000000 0.7900000000 0 0 0 v 0.0 0.0 0.0 mag 0.0 
0.2900000000 0.1000000000 0.7900000000 0 0 0 v 0.0 0.0 0.0 mag 0.0 
0.5400000000 0.1000000000 0.7900000000 0 0 0 v 0.0 0.0 0.0 mag 0.0 
0.7900000000 0.1000000000 0.7900000000 0 0 0 v 0.0 0.0 0.0 mag 0.0 
0.1233330000 0.2235120000 0.2066670000 0 0 0 v 0.0 0.0 0.0 mag 0.0 
0.3733330000 0.2235120000 0.2066670000 0 0 0 v 0.0 0.0 0.0 mag 0.0 
0.6233330000 0.2235120000 0.2066670000 0 0 0 v 0.0 0.0 0.0 mag 0.0 
0.8733330000 0.2235120000 0.2066670000 0 0 0 v 0.0 0.0 0.0 mag 0.0 
0.1233330000 0.2235120000 0.4566670000 0 0 0 v 0.0 0.0 0.0 mag 0.0 
0.3733330000 0.2235120000 0.4566670000 0 0 0 v 0.0 0.0 0.0 mag 0.0 
0.6233330000 0.2235120000 0.4566670000 0 0 0 v 0.0 0.0 0.0 mag 0.0 
0.8733330000 0.2235120000 0.4566670000 0 0 0 v 0.0 0.0 0.0 mag 0.0 
0.1233330000 0.2235120000 0.7066670000 0 0 0 v 0.0 0.0 0.0 mag 0.0 
0.3733330000 0.2235120000 0.7066670000 0 0 0 v 0.0 0.0 0.0 mag 0.0 
0.6233330000 0.2235120000 0.7066670000 0 0 0 v 0.0 0.0 0.0 mag 0.0 
0.8733330000 0.2235120000 0.7066670000 0 0 0 v 0.0 0.0 0.0 mag 0.0 
0.1233330000 0.2235120000 0.9566670000 0 0 0 v 0.0 0.0 0.0 mag 0.0 
0.3733330000 0.2235120000 0.9566670000 0 0 0 v 0.0 0.0 0.0 mag 0.0 
0.6233330000 0.2235120000 0.9566670000 0 0 0 v 0.0 0.0 0.0 mag 0.0 
0.8733330000 0.2235120000 0.9566670000 0 0 0 v 0.0 0.0 0.0 mag 0.0 
0.2089880000 0.3470130000 0.1262730000 1 1 1 v 0.0 0.0 0.0 mag 0.0 
0.4560660000 0.3461560000 0.1241790000 1 1 1 v 0.0 0.0 0.0 mag 0.0 
0.7062050000 0.3469070000 0.1238240000 1 1 1 v 0.0 0.0 0.0 mag 0.0 
0.9569440000 0.3467650000 0.1231180000 1 1 1 v 0.0 0.0 0.0 mag 0.0 
0.2066550000 0.3478030000 0.3732100000 1 1 1 v 0.0 0.0 0.0 mag 0.0 
0.4572770000 0.3496100000 0.3785120000 1 1 1 v 0.0 0.0 0.0 mag 0.0 
0.7060300000 0.3468900000 0.3741930000 1 1 1 v 0.0 0.0 0.0 mag 0.0 
0.9564490000 0.3469100000 0.3740610000 1 1 1 v 0.0 0.0 0.0 mag 0.0 
0.2079930000 0.3481620000 0.6225350000 1 1 1 v 0.0 0.0 0.0 mag 0.0 
0.4563390000 0.3494060000 0.6238090000 1 1 1 v 0.0 0.0 0.0 mag 0.0 
0.7015930000 0.3496700000 0.6229220000 1 1 1 v 0.0 0.0 0.0 mag 0.0 
0.9559590000 0.3461830000 0.6241370000 1 1 1 v 0.0 0.0 0.0 mag 0.0 
0.2063090000 0.3456540000 0.8738150000 1 1 1 v 0.0 0.0 0.0 mag 0.0 
0.4575920000 0.3480990000 0.8722130000 1 1 1 v 0.0 0.0 0.0 mag 0.0 
0.7068820000 0.3478270000 0.8734530000 1 1 1 v 0.0 0.0 0.0 mag 0.0 
0.9536870000 0.3471160000 0.8710420000 1 1 1 v 0.0 0.0 0.0 mag 0.0 
0.0402610000 0.4733960000 0.0398840000 1 1 1 v 0.0 0.0 0.0 mag 0.0 
0.2891100000 0.4728770000 0.0410700000 1 1 1 v 0.0 0.0 0.0 mag 0.0 
0.5387930000 0.4728710000 0.0441640000 1 1 1 v 0.0 0.0 0.0 mag 0.0 
0.7914830000 0.4730360000 0.0435950000 1 1 1 v 0.0 0.0 0.0 mag 0.0 
0.0367470000 0.4730560000 0.2887040000 1 1 1 v 0.0 0.0 0.0 mag 0.0 
0.2867550000 0.4775560000 0.2871200000 1 1 1 v 0.0 0.0 0.0 mag 0.0 
0.5387780000 0.4733490000 0.2920070000 1 1 1 v 0.0 0.0 0.0 mag 0.0 
0.7884000000 0.4733450000 0.2919670000 1 1 1 v 0.0 0.0 0.0 mag 0.0 
0.0361600000 0.4728520000 0.5414710000 1 1 1 v 0.0 0.0 0.0 mag 0.0 
0.2812750000 0.4775690000 0.5415930000 1 1 1 v 0.0 0.0 0.0 mag 0.0 
0.5406560000 0.4893460000 0.5389550000 1 1 1 v 0.0 0.0 0.0 mag 0.0 
0.7879300000 0.4733290000 0.5413490000 1 1 1 v 0.0 0.0 0.0 mag 0.0 
0.0389940000 0.4728940000 0.7909930000 1 1 1 v 0.0 0.0 0.0 mag 0.0 
0.2876440000 0.4733570000 0.7926490000 1 1 1 v 0.0 0.0 0.0 mag 0.0 
0.5386000000 0.4774760000 0.7991190000 1 1 1 v 0.0 0.0 0.0 mag 0.0 
0.7930270000 0.4779330000 0.7935380000 1 1 1 v 0.0 0.0 0.0 mag 0.0 

