ATOMIC_SPECIES
C   12.011        C_ONCV_PBE-1.0.upf
Pt  195.084       Pt_ONCV_PBE-1.0.upf
H   1.008         H_ONCV_PBE-1.0.upf

NUMERICAL_ORBITAL
C_gga_7au_100Ry_2s2p1d.orb
Pt_gga_7au_100Ry_4s2p2d1f.orb
H_gga_6au_100Ry_2s1p.orb

LATTICE_CONSTANT
1.8897261258369282 

LATTICE_VECTORS
12.322700000      0.0000000000      0.0000000000      
0.0000000000      20.000000000      0.0000000000      
-6.161540000      0.0000000000      10.671500000      

ATOMIC_POSITIONS
Direct

C
0.0000000000
54
0.0315450000 0.4938840000 0.0314550000 1 1 1 v 0.0 0.0 0.0 mag 0.0 
0.1655310000 0.4935630000 0.1003690000 1 1 1 v 0.0 0.0 0.0 mag 0.0 
0.2341200000 0.4930080000 0.0361730000 1 1 1 v 0.0 0.0 0.0 mag 0.0 
0.3680920000 0.4956110000 0.1048720000 1 1 1 v 0.0 0.0 0.0 mag 0.0 
0.4333350000 0.4930760000 0.0361740000 1 1 1 v 0.0 0.0 0.0 mag 0.0 
0.5660590000 0.4942160000 0.1004590000 1 1 1 v 0.0 0.0 0.0 mag 0.0 
0.6310930000 0.4940730000 0.0315080000 1 1 1 v 0.0 0.0 0.0 mag 0.0 
0.7638500000 0.4932700000 0.0957420000 1 1 1 v 0.0 0.0 0.0 mag 0.0 
0.8291020000 0.4958130000 0.0270670000 1 1 1 v 0.0 0.0 0.0 mag 0.0 
0.9630390000 0.4930010000 0.0957330000 1 1 1 v 0.0 0.0 0.0 mag 0.0 
0.0294080000 0.4887910000 0.2293110000 1 1 1 v 0.0 0.0 0.0 mag 0.0 
0.1621560000 0.4902060000 0.2973610000 1 1 1 v 0.0 0.0 0.0 mag 0.0 
0.2313620000 0.4951030000 0.2338610000 1 1 1 v 0.0 0.0 0.0 mag 0.0 
0.3648260000 0.5028190000 0.3040070000 1 1 1 v 0.0 0.0 0.0 mag 0.0 
0.4347140000 0.5022490000 0.2384080000 1 1 1 v 0.0 0.0 0.0 mag 0.0 
0.5700780000 0.5035730000 0.3041810000 1 1 1 v 0.0 0.0 0.0 mag 0.0 
0.6335720000 0.4964840000 0.2340520000 1 1 1 v 0.0 0.0 0.0 mag 0.0 
0.7664250000 0.4919730000 0.2976200000 1 1 1 v 0.0 0.0 0.0 mag 0.0 
0.8309840000 0.4895830000 0.2294660000 1 1 1 v 0.0 0.0 0.0 mag 0.0 
0.9638460000 0.4861790000 0.2966580000 1 1 1 v 0.0 0.0 0.0 mag 0.0 
0.0308840000 0.4826930000 0.4307460000 1 1 1 v 0.0 0.0 0.0 mag 0.0 
0.1625810000 0.4828090000 0.4989000000 1 1 1 v 0.0 0.0 0.0 mag 0.0 
0.2261770000 0.4882910000 0.4307270000 1 1 1 v 0.0 0.0 0.0 mag 0.0 
0.3552890000 0.4981050000 0.4981050000 1 1 1 v 0.0 0.0 0.0 mag 0.0 
0.4227180000 0.5110600000 0.4358850000 1 1 1 v 0.0 0.0 0.0 mag 0.0 
0.6441880000 0.5122270000 0.4363090000 1 1 1 v 0.0 0.0 0.0 mag 0.0 
0.7744410000 0.5009190000 0.4986640000 1 1 1 v 0.0 0.0 0.0 mag 0.0 
0.8359250000 0.4908560000 0.4310700000 1 1 1 v 0.0 0.0 0.0 mag 0.0 
0.9675300000 0.4844180000 0.4990290000 1 1 1 v 0.0 0.0 0.0 mag 0.0 
0.0345370000 0.4843480000 0.6329720000 1 1 1 v 0.0 0.0 0.0 mag 0.0 
0.1661930000 0.4827460000 0.7011440000 1 1 1 v 0.0 0.0 0.0 mag 0.0 
0.2296210000 0.4829290000 0.6328720000 1 1 1 v 0.0 0.0 0.0 mag 0.0 
0.3614340000 0.4885100000 0.7008870000 1 1 1 v 0.0 0.0 0.0 mag 0.0 
0.4229820000 0.4979370000 0.6332400000 1 1 1 v 0.0 0.0 0.0 mag 0.0 
0.5529200000 0.5104340000 0.6954670000 1 1 1 v 0.0 0.0 0.0 mag 0.0 
0.7744470000 0.5135580000 0.6962040000 1 1 1 v 0.0 0.0 0.0 mag 0.0 
0.8421250000 0.5013130000 0.6338310000 1 1 1 v 0.0 0.0 0.0 mag 0.0 
0.9710200000 0.4907860000 0.7010970000 1 1 1 v 0.0 0.0 0.0 mag 0.0 
0.0350250000 0.4919100000 0.8344870000 1 1 1 v 0.0 0.0 0.0 mag 0.0 
0.1677190000 0.4894890000 0.9025380000 1 1 1 v 0.0 0.0 0.0 mag 0.0 
0.2332870000 0.4862180000 0.8352350000 1 1 1 v 0.0 0.0 0.0 mag 0.0 
0.3662270000 0.4889420000 0.9024870000 1 1 1 v 0.0 0.0 0.0 mag 0.0 
0.4308290000 0.4905270000 0.8343410000 1 1 1 v 0.0 0.0 0.0 mag 0.0 
0.5636400000 0.4955260000 0.8978970000 1 1 1 v 0.0 0.0 0.0 mag 0.0 
0.6271410000 0.5027580000 0.8277930000 1 1 1 v 0.0 0.0 0.0 mag 0.0 
0.7624690000 0.5025910000 0.8935320000 1 1 1 v 0.0 0.0 0.0 mag 0.0 
0.8323440000 0.5043390000 0.8279350000 1 1 1 v 0.0 0.0 0.0 mag 0.0 
0.9657910000 0.4964960000 0.8980070000 1 1 1 v 0.0 0.0 0.0 mag 0.0 
0.5867590000 0.6956890000 0.5363910000 1 1 1 v 0.0 0.0 0.0 mag 0.0 
0.7246490000 0.7158540000 0.6099890000 1 1 1 v 0.0 0.0 0.0 mag 0.0 
0.7374300000 0.7905720000 0.6410910000 1 1 1 v 0.0 0.0 0.0 mag 0.0 
0.6680910000 0.8094300000 0.7109290000 1 1 1 v 0.0 0.0 0.0 mag 0.0 
0.5306790000 0.7872510000 0.6393880000 1 1 1 v 0.0 0.0 0.0 mag 0.0 
0.5191610000 0.7125540000 0.6083440000 1 1 1 v 0.0 0.0 0.0 mag 0.0 

Pt
0.0000000000
1
0.5981670000 0.5308210000 0.5660740000 1 1 1 v 0.0 0.0 0.0 mag 0.0 

H
0.0000000000
12
0.4845030000 0.7990680000 0.6937230000 1 1 1 v 0.0 0.0 0.0 mag 0.0 
0.5403420000 0.7210230000 0.4446620000 1 1 1 v 0.0 0.0 0.0 mag 0.0 
0.7721510000 0.7031890000 0.5572810000 1 1 1 v 0.0 0.0 0.0 mag 0.0 
0.7714980000 0.6866180000 0.6975620000 1 1 1 v 0.0 0.0 0.0 mag 0.0 
0.8367550000 0.8047280000 0.6966250000 1 1 1 v 0.0 0.0 0.0 mag 0.0 
0.6979800000 0.8193250000 0.5530830000 1 1 1 v 0.0 0.0 0.0 mag 0.0 
0.6741430000 0.8636390000 0.7278380000 1 1 1 v 0.0 0.0 0.0 mag 0.0 
0.7149830000 0.7853040000 0.8038180000 1 1 1 v 0.0 0.0 0.0 mag 0.0 
0.4807200000 0.8158240000 0.5512820000 1 1 1 v 0.0 0.0 0.0 mag 0.0 
0.4202110000 0.6974730000 0.5544790000 1 1 1 v 0.0 0.0 0.0 mag 0.0 
0.5613420000 0.6832760000 0.6959260000 1 1 1 v 0.0 0.0 0.0 mag 0.0 
0.5787880000 0.6412960000 0.5155120000 1 1 1 v 0.0 0.0 0.0 mag 0.0 

