ATOMIC_SPECIES
H   1.008         H_ONCV_PBE-1.0.upf
Au  196.966569    Au_ONCV_PBE-1.0.upf

NUMERICAL_ORBITAL
H_gga_6au_100Ry_2s1p.orb
Au_gga_7au_100Ry_4s2p2d1f.orb

LATTICE_CONSTANT
1.8897261258369282 

LATTICE_VECTORS
11.535200000      0.0000000000      0.0000000000      
0.0000000000      19.063800000      0.0000000000      
-5.767600000      0.0000000000      9.9897700000      

ATOMIC_POSITIONS
Direct

H
0.0000000000
2
0.5973190000 0.5270870000 0.7043100000 1 1 1 v 0.0 0.0 0.0 mag 0.0 
0.3785790000 0.5286640000 0.4891710000 1 1 1 v 0.0 0.0 0.0 mag 0.0 

Au
0.0000000000
64
0.0400000000 0.1000000000 0.0400000000 0 0 0 v 0.0 0.0 0.0 mag 0.0 
0.2900000000 0.1000000000 0.0400000000 0 0 0 v 0.0 0.0 0.0 mag 0.0 
0.5400000000 0.1000000000 0.0400000000 0 0 0 v 0.0 0.0 0.0 mag 0.0 
0.7900000000 0.1000000000 0.0400000000 0 0 0 v 0.0 0.0 0.0 mag 0.0 
0.0400000000 0.1000000000 0.2900000000 0 0 0 v 0.0 0.0 0.0 mag 0.0 
0.2900000000 0.1000000000 0.2900000000 0 0 0 v 0.0 0.0 0.0 mag 0.0 
0.5400000000 0.1000000000 0.2900000000 0 0 0 v 0.0 0.0 0.0 mag 0.0 
0.7900000000 0.1000000000 0.2900000000 0 0 0 v 0.0 0.0 0.0 mag 0.0 
0.0400000000 0.1000000000 0.5400000000 0 0 0 v 0.0 0.0 0.0 mag 0.0 
0.2900000000 0.1000000000 0.5400000000 0 0 0 v 0.0 0.0 0.0 mag 0.0 
0.5400000000 0.1000000000 0.5400000000 0 0 0 v 0.0 0.0 0.0 mag 0.0 
0.7900000000 0.1000000000 0.5400000000 0 0 0 v 0.0 0.0 0.0 mag 0.0 
0.0400000000 0.1000000000 0.7900000000 0 0 0 v 0.0 0.0 0.0 mag 0.0 
0.2900000000 0.1000000000 0.7900000000 0 0 0 v 0.0 0.0 0.0 mag 0.0 
0.5400000000 0.1000000000 0.7900000000 0 0 0 v 0.0 0.0 0.0 mag 0.0 
0.7900000000 0.1000000000 0.7900000000 0 0 0 v 0.0 0.0 0.0 mag 0.0 
0.1233330000 0.2235120000 0.2066670000 0 0 0 v 0.0 0.0 0.0 mag 0.0 
0.3733330000 0.2235120000 0.2066670000 0 0 0 v 0.0 0.0 0.0 mag 0.0 
0.6233330000 0.2235120000 0.2066670000 0 0 0 v 0.0 0.0 0.0 mag 0.0 
0.8733330000 0.2235120000 0.2066670000 0 0 0 v 0.0 0.0 0.0 mag 0.0 
0.1233330000 0.2235120000 0.4566670000 0 0 0 v 0.0 0.0 0.0 mag 0.0 
0.3733330000 0.2235120000 0.4566670000 0 0 0 v 0.0 0.0 0.0 mag 0.0 
0.6233330000 0.2235120000 0.4566670000 0 0 0 v 0.0 0.0 0.0 mag 0.0 
0.8733330000 0.2235120000 0.4566670000 0 0 0 v 0.0 0.0 0.0 mag 0.0 
0.1233330000 0.2235120000 0.7066670000 0 0 0 v 0.0 0.0 0.0 mag 0.0 
0.3733330000 0.2235120000 0.7066670000 0 0 0 v 0.0 0.0 0.0 mag 0.0 
0.6233330000 0.2235120000 0.7066670000 0 0 0 v 0.0 0.0 0.0 mag 0.0 
0.8733330000 0.2235120000 0.7066670000 0 0 0 v 0.0 0.0 0.0 mag 0.0 
0.1233330000 0.2235120000 0.9566670000 0 0 0 v 0.0 0.0 0.0 mag 0.0 
0.3733330000 0.2235120000 0.9566670000 0 0 0 v 0.0 0.0 0.0 mag 0.0 
0.6233330000 0.2235120000 0.9566670000 0 0 0 v 0.0 0.0 0.0 mag 0.0 
0.8733330000 0.2235120000 0.9566670000 0 0 0 v 0.0 0.0 0.0 mag 0.0 
0.2088280000 0.3468500000 0.1255660000 1 1 1 v 0.0 0.0 0.0 mag 0.0 
0.4562930000 0.3462750000 0.1240290000 1 1 1 v 0.0 0.0 0.0 mag 0.0 
0.7062780000 0.3470650000 0.1237510000 1 1 1 v 0.0 0.0 0.0 mag 0.0 
0.9569020000 0.3469320000 0.1231380000 1 1 1 v 0.0 0.0 0.0 mag 0.0 
0.2065660000 0.3477950000 0.3728500000 1 1 1 v 0.0 0.0 0.0 mag 0.0 
0.4573590000 0.3496950000 0.3782770000 1 1 1 v 0.0 0.0 0.0 mag 0.0 
0.7060950000 0.3470060000 0.3741410000 1 1 1 v 0.0 0.0 0.0 mag 0.0 
0.9565510000 0.3470720000 0.3740210000 1 1 1 v 0.0 0.0 0.0 mag 0.0 
0.2082740000 0.3483890000 0.6224300000 1 1 1 v 0.0 0.0 0.0 mag 0.0 
0.4564770000 0.3493290000 0.6236950000 1 1 1 v 0.0 0.0 0.0 mag 0.0 
0.7018350000 0.3497790000 0.6228730000 1 1 1 v 0.0 0.0 0.0 mag 0.0 
0.9561140000 0.3463190000 0.6239200000 1 1 1 v 0.0 0.0 0.0 mag 0.0 
0.2065690000 0.3458290000 0.8735400000 1 1 1 v 0.0 0.0 0.0 mag 0.0 
0.4576920000 0.3483010000 0.8719590000 1 1 1 v 0.0 0.0 0.0 mag 0.0 
0.7072270000 0.3478450000 0.8735310000 1 1 1 v 0.0 0.0 0.0 mag 0.0 
0.9542030000 0.3470320000 0.8710820000 1 1 1 v 0.0 0.0 0.0 mag 0.0 
0.0403400000 0.4736700000 0.0394510000 1 1 1 v 0.0 0.0 0.0 mag 0.0 
0.2894710000 0.4731550000 0.0404390000 1 1 1 v 0.0 0.0 0.0 mag 0.0 
0.5391770000 0.4731420000 0.0438630000 1 1 1 v 0.0 0.0 0.0 mag 0.0 
0.7919530000 0.4735420000 0.0435540000 1 1 1 v 0.0 0.0 0.0 mag 0.0 
0.0368210000 0.4735360000 0.2882030000 1 1 1 v 0.0 0.0 0.0 mag 0.0 
0.2864770000 0.4767000000 0.2858660000 1 1 1 v 0.0 0.0 0.0 mag 0.0 
0.5388270000 0.4736570000 0.2917520000 1 1 1 v 0.0 0.0 0.0 mag 0.0 
0.7885500000 0.4734790000 0.2918460000 1 1 1 v 0.0 0.0 0.0 mag 0.0 
0.0365340000 0.4731120000 0.5410800000 1 1 1 v 0.0 0.0 0.0 mag 0.0 
0.2809520000 0.4776810000 0.5400030000 1 1 1 v 0.0 0.0 0.0 mag 0.0 
0.5405730000 0.4893820000 0.5384670000 1 1 1 v 0.0 0.0 0.0 mag 0.0 
0.7880320000 0.4736270000 0.5412500000 1 1 1 v 0.0 0.0 0.0 mag 0.0 
0.0393420000 0.4731770000 0.7904840000 1 1 1 v 0.0 0.0 0.0 mag 0.0 
0.2881180000 0.4737220000 0.7921080000 1 1 1 v 0.0 0.0 0.0 mag 0.0 
0.5400080000 0.4775960000 0.7995760000 1 1 1 v 0.0 0.0 0.0 mag 0.0 
0.7935940000 0.4773870000 0.7935290000 1 1 1 v 0.0 0.0 0.0 mag 0.0 

