ATOMIC_SPECIES
C   12.011        C_ONCV_PBE-1.0.upf
Pt  195.084       Pt_ONCV_PBE-1.0.upf
H   1.008         H_ONCV_PBE-1.0.upf

NUMERICAL_ORBITAL
C_gga_7au_100Ry_2s2p1d.orb
Pt_gga_7au_100Ry_4s2p2d1f.orb
H_gga_6au_100Ry_2s1p.orb

LATTICE_CONSTANT
1.8897261258369282 

LATTICE_VECTORS
12.322700000      0.0000000000      0.0000000000      
0.0000000000      20.000000000      0.0000000000      
-6.161540000      0.0000000000      10.671500000      

ATOMIC_POSITIONS
Direct

C
0.0000000000
54
0.0241410000 0.5042030000 0.0211770000 1 1 1 v 0.0 0.0 0.0 mag 0.0 
0.1582510000 0.5029240000 0.0900410000 1 1 1 v 0.0 0.0 0.0 mag 0.0 
0.2259080000 0.5022860000 0.0246840000 1 1 1 v 0.0 0.0 0.0 mag 0.0 
0.3597510000 0.5046290000 0.0929510000 1 1 1 v 0.0 0.0 0.0 mag 0.0 
0.4248270000 0.5002380000 0.0244600000 1 1 1 v 0.0 0.0 0.0 mag 0.0 
0.5579200000 0.4998110000 0.0888080000 1 1 1 v 0.0 0.0 0.0 mag 0.0 
0.6235230000 0.4984100000 0.0209450000 1 1 1 v 0.0 0.0 0.0 mag 0.0 
0.7566410000 0.4994280000 0.0855850000 1 1 1 v 0.0 0.0 0.0 mag 0.0 
0.8220390000 0.5036850000 0.0171630000 1 1 1 v 0.0 0.0 0.0 mag 0.0 
0.9562350000 0.5018610000 0.0860950000 1 1 1 v 0.0 0.0 0.0 mag 0.0 
0.0227280000 0.4962610000 0.2193040000 1 1 1 v 0.0 0.0 0.0 mag 0.0 
0.1562840000 0.4961510000 0.2876780000 1 1 1 v 0.0 0.0 0.0 mag 0.0 
0.2254880000 0.5016780000 0.2239980000 1 1 1 v 0.0 0.0 0.0 mag 0.0 
0.3605090000 0.5074100000 0.2947290000 1 1 1 v 0.0 0.0 0.0 mag 0.0 
0.4272030000 0.5122380000 0.2260890000 1 1 1 v 0.0 0.0 0.0 mag 0.0 
0.5612870000 0.5177230000 0.2886050000 1 1 1 v 0.0 0.0 0.0 mag 0.0 
0.6258140000 0.5048620000 0.2216880000 1 1 1 v 0.0 0.0 0.0 mag 0.0 
0.7588190000 0.5007710000 0.2867190000 1 1 1 v 0.0 0.0 0.0 mag 0.0 
0.8239030000 0.4969530000 0.2190020000 1 1 1 v 0.0 0.0 0.0 mag 0.0 
0.9569200000 0.4937400000 0.2865030000 1 1 1 v 0.0 0.0 0.0 mag 0.0 
0.0232480000 0.4902440000 0.4205330000 1 1 1 v 0.0 0.0 0.0 mag 0.0 
0.1553220000 0.4887890000 0.4885680000 1 1 1 v 0.0 0.0 0.0 mag 0.0 
0.2201200000 0.4925320000 0.4209520000 1 1 1 v 0.0 0.0 0.0 mag 0.0 
0.3514200000 0.4969850000 0.4883950000 1 1 1 v 0.0 0.0 0.0 mag 0.0 
0.4211090000 0.5057750000 0.4278340000 1 1 1 v 0.0 0.0 0.0 mag 0.0 
0.6376260000 0.5357600000 0.4170770000 1 1 1 v 0.0 0.0 0.0 mag 0.0 
0.7663750000 0.5198290000 0.4864370000 1 1 1 v 0.0 0.0 0.0 mag 0.0 
0.8274430000 0.5019810000 0.4202540000 1 1 1 v 0.0 0.0 0.0 mag 0.0 
0.9587790000 0.4937450000 0.4883310000 1 1 1 v 0.0 0.0 0.0 mag 0.0 
0.0254910000 0.4954060000 0.6223240000 1 1 1 v 0.0 0.0 0.0 mag 0.0 
0.1573770000 0.4909170000 0.6903640000 1 1 1 v 0.0 0.0 0.0 mag 0.0 
0.2216820000 0.4878900000 0.6228260000 1 1 1 v 0.0 0.0 0.0 mag 0.0 
0.3538030000 0.4904120000 0.6910990000 1 1 1 v 0.0 0.0 0.0 mag 0.0 
0.4174840000 0.4973440000 0.6243310000 1 1 1 v 0.0 0.0 0.0 mag 0.0 
0.5451820000 0.5112240000 0.6874510000 1 1 1 v 0.0 0.0 0.0 mag 0.0 
0.7665390000 0.5274530000 0.6862980000 1 1 1 v 0.0 0.0 0.0 mag 0.0 
0.8321260000 0.5187360000 0.6216820000 1 1 1 v 0.0 0.0 0.0 mag 0.0 
0.9618270000 0.5051310000 0.6895700000 1 1 1 v 0.0 0.0 0.0 mag 0.0 
0.0260250000 0.5044310000 0.8229250000 1 1 1 v 0.0 0.0 0.0 mag 0.0 
0.1590790000 0.4996420000 0.8912650000 1 1 1 v 0.0 0.0 0.0 mag 0.0 
0.2245740000 0.4945280000 0.8242100000 1 1 1 v 0.0 0.0 0.0 mag 0.0 
0.3575030000 0.4949560000 0.8916720000 1 1 1 v 0.0 0.0 0.0 mag 0.0 
0.4229350000 0.4935210000 0.8240150000 1 1 1 v 0.0 0.0 0.0 mag 0.0 
0.5557850000 0.4982770000 0.8878010000 1 1 1 v 0.0 0.0 0.0 mag 0.0 
0.6197210000 0.5070530000 0.8183330000 1 1 1 v 0.0 0.0 0.0 mag 0.0 
0.7550030000 0.5107710000 0.8839940000 1 1 1 v 0.0 0.0 0.0 mag 0.0 
0.8233130000 0.5157490000 0.8176500000 1 1 1 v 0.0 0.0 0.0 mag 0.0 
0.9574510000 0.5083500000 0.8872290000 1 1 1 v 0.0 0.0 0.0 mag 0.0 
0.6370000000 0.6469790000 0.6344760000 1 1 1 v 0.0 0.0 0.0 mag 0.0 
0.7708690000 0.6719470000 0.7094790000 1 1 1 v 0.0 0.0 0.0 mag 0.0 
0.7715880000 0.7488030000 0.7161720000 1 1 1 v 0.0 0.0 0.0 mag 0.0 
0.6908620000 0.7738970000 0.7697920000 1 1 1 v 0.0 0.0 0.0 mag 0.0 
0.5577380000 0.7460130000 0.6963270000 1 1 1 v 0.0 0.0 0.0 mag 0.0 
0.5582820000 0.6689610000 0.6912600000 1 1 1 v 0.0 0.0 0.0 mag 0.0 

Pt
0.0000000000
1
0.5877740000 0.5460930000 0.5629920000 1 1 1 v 0.0 0.0 0.0 mag 0.0 

H
0.0000000000
12
0.5012460000 0.7623890000 0.7377390000 1 1 1 v 0.0 0.0 0.0 mag 0.0 
0.5953140000 0.6689300000 0.5394640000 1 1 1 v 0.0 0.0 0.0 mag 0.0 
0.8267570000 0.6553410000 0.6676780000 1 1 1 v 0.0 0.0 0.0 mag 0.0 
0.8157520000 0.6514000000 0.8049530000 1 1 1 v 0.0 0.0 0.0 mag 0.0 
0.8685820000 0.7666210000 0.7727820000 1 1 1 v 0.0 0.0 0.0 mag 0.0 
0.7356570000 0.7693760000 0.6212640000 1 1 1 v 0.0 0.0 0.0 mag 0.0 
0.6887240000 0.8288600000 0.7694770000 1 1 1 v 0.0 0.0 0.0 mag 0.0 
0.7335450000 0.7581680000 0.8684250000 1 1 1 v 0.0 0.0 0.0 mag 0.0 
0.5113890000 0.7657750000 0.5999230000 1 1 1 v 0.0 0.0 0.0 mag 0.0 
0.4616120000 0.6504990000 0.6361060000 1 1 1 v 0.0 0.0 0.0 mag 0.0 
0.5973620000 0.6486090000 0.7864030000 1 1 1 v 0.0 0.0 0.0 mag 0.0 
0.6100030000 0.5862750000 0.4408450000 1 1 1 v 0.0 0.0 0.0 mag 0.0 

