ATOMIC_SPECIES
C   12.011        C_ONCV_PBE-1.0.upf
Pt  195.084       Pt_ONCV_PBE-1.0.upf
H   1.008         H_ONCV_PBE-1.0.upf

NUMERICAL_ORBITAL
C_gga_7au_100Ry_2s2p1d.orb
Pt_gga_7au_100Ry_4s2p2d1f.orb
H_gga_6au_100Ry_2s1p.orb

LATTICE_CONSTANT
1.8897261258369282 

LATTICE_VECTORS
12.322700000      0.0000000000      0.0000000000      
0.0000000000      20.000000000      0.0000000000      
-6.161540000      0.0000000000      10.671500000      

ATOMIC_POSITIONS
Direct

C
0.0000000000
54
0.0312570000 0.4946550000 0.0313270000 1 1 1 v 0.0 0.0 0.0 mag 0.0 
0.1652720000 0.4945140000 0.1002710000 1 1 1 v 0.0 0.0 0.0 mag 0.0 
0.2338200000 0.4937270000 0.0360530000 1 1 1 v 0.0 0.0 0.0 mag 0.0 
0.3677940000 0.4964540000 0.1047710000 1 1 1 v 0.0 0.0 0.0 mag 0.0 
0.4330310000 0.4937600000 0.0360530000 1 1 1 v 0.0 0.0 0.0 mag 0.0 
0.5657640000 0.4947930000 0.1003130000 1 1 1 v 0.0 0.0 0.0 mag 0.0 
0.6308180000 0.4947710000 0.0313530000 1 1 1 v 0.0 0.0 0.0 mag 0.0 
0.7635730000 0.4938370000 0.0956020000 1 1 1 v 0.0 0.0 0.0 mag 0.0 
0.8288080000 0.4965730000 0.0268960000 1 1 1 v 0.0 0.0 0.0 mag 0.0 
0.9627570000 0.4937290000 0.0956010000 1 1 1 v 0.0 0.0 0.0 mag 0.0 
0.0291950000 0.4895380000 0.2292170000 1 1 1 v 0.0 0.0 0.0 mag 0.0 
0.1619510000 0.4914570000 0.2973070000 1 1 1 v 0.0 0.0 0.0 mag 0.0 
0.2311710000 0.4964720000 0.2338030000 1 1 1 v 0.0 0.0 0.0 mag 0.0 
0.3646270000 0.5044650000 0.3039320000 1 1 1 v 0.0 0.0 0.0 mag 0.0 
0.4344600000 0.5034860000 0.2382770000 1 1 1 v 0.0 0.0 0.0 mag 0.0 
0.5698770000 0.5046230000 0.3040390000 1 1 1 v 0.0 0.0 0.0 mag 0.0 
0.6332990000 0.4969740000 0.2339190000 1 1 1 v 0.0 0.0 0.0 mag 0.0 
0.7661110000 0.4921240000 0.2974480000 1 1 1 v 0.0 0.0 0.0 mag 0.0 
0.8307020000 0.4898360000 0.2292980000 1 1 1 v 0.0 0.0 0.0 mag 0.0 
0.9636000000 0.4865440000 0.2965320000 1 1 1 v 0.0 0.0 0.0 mag 0.0 
0.0306500000 0.4829570000 0.4306200000 1 1 1 v 0.0 0.0 0.0 mag 0.0 
0.1623920000 0.4836870000 0.4987980000 1 1 1 v 0.0 0.0 0.0 mag 0.0 
0.2260120000 0.4898280000 0.4307010000 1 1 1 v 0.0 0.0 0.0 mag 0.0 
0.3549980000 0.5003310000 0.4980740000 1 1 1 v 0.0 0.0 0.0 mag 0.0 
0.4224600000 0.5132790000 0.4358140000 1 1 1 v 0.0 0.0 0.0 mag 0.0 
0.6440400000 0.5134850000 0.4361040000 1 1 1 v 0.0 0.0 0.0 mag 0.0 
0.7740570000 0.5013200000 0.4984120000 1 1 1 v 0.0 0.0 0.0 mag 0.0 
0.8355340000 0.4908090000 0.4308980000 1 1 1 v 0.0 0.0 0.0 mag 0.0 
0.9671930000 0.4843020000 0.4988650000 1 1 1 v 0.0 0.0 0.0 mag 0.0 
0.0341790000 0.4842740000 0.6328280000 1 1 1 v 0.0 0.0 0.0 mag 0.0 
0.1659160000 0.4830170000 0.7010100000 1 1 1 v 0.0 0.0 0.0 mag 0.0 
0.2294250000 0.4837720000 0.6327730000 1 1 1 v 0.0 0.0 0.0 mag 0.0 
0.3611670000 0.4899870000 0.7007720000 1 1 1 v 0.0 0.0 0.0 mag 0.0 
0.4226680000 0.5002670000 0.6332270000 1 1 1 v 0.0 0.0 0.0 mag 0.0 
0.5525640000 0.5130220000 0.6954880000 1 1 1 v 0.0 0.0 0.0 mag 0.0 
0.7741300000 0.5144170000 0.6959100000 1 1 1 v 0.0 0.0 0.0 mag 0.0 
0.8416960000 0.5016010000 0.6335850000 1 1 1 v 0.0 0.0 0.0 mag 0.0 
0.9705910000 0.4907980000 0.7008980000 1 1 1 v 0.0 0.0 0.0 mag 0.0 
0.0346370000 0.4921560000 0.8343160000 1 1 1 v 0.0 0.0 0.0 mag 0.0 
0.1673730000 0.4898380000 0.9024030000 1 1 1 v 0.0 0.0 0.0 mag 0.0 
0.2329740000 0.4866070000 0.8351090000 1 1 1 v 0.0 0.0 0.0 mag 0.0 
0.3659050000 0.4896470000 0.9023570000 1 1 1 v 0.0 0.0 0.0 mag 0.0 
0.4305290000 0.4916730000 0.8342240000 1 1 1 v 0.0 0.0 0.0 mag 0.0 
0.5633100000 0.4967320000 0.8977530000 1 1 1 v 0.0 0.0 0.0 mag 0.0 
0.6267550000 0.5044750000 0.8276490000 1 1 1 v 0.0 0.0 0.0 mag 0.0 
0.7621400000 0.5037350000 0.8933960000 1 1 1 v 0.0 0.0 0.0 mag 0.0 
0.8319570000 0.5051800000 0.8277400000 1 1 1 v 0.0 0.0 0.0 mag 0.0 
0.9654000000 0.4970740000 0.8978160000 1 1 1 v 0.0 0.0 0.0 mag 0.0 
0.5807260000 0.7005390000 0.5230360000 1 1 1 v 0.0 0.0 0.0 mag 0.0 
0.7184800000 0.7212970000 0.5936460000 1 1 1 v 0.0 0.0 0.0 mag 0.0 
0.7312450000 0.7966250000 0.6194310000 1 1 1 v 0.0 0.0 0.0 mag 0.0 
0.6632740000 0.8181120000 0.6892550000 1 1 1 v 0.0 0.0 0.0 mag 0.0 
0.5257830000 0.7960780000 0.6198900000 1 1 1 v 0.0 0.0 0.0 mag 0.0 
0.5138100000 0.7207560000 0.5941690000 1 1 1 v 0.0 0.0 0.0 mag 0.0 

Pt
0.0000000000
1
0.5981760000 0.5328710000 0.5659310000 1 1 1 v 0.0 0.0 0.0 mag 0.0 

H
0.0000000000
12
0.4800650000 0.8100570000 0.6737080000 1 1 1 v 0.0 0.0 0.0 mag 0.0 
0.5334240000 0.7235100000 0.4291310000 1 1 1 v 0.0 0.0 0.0 mag 0.0 
0.7648960000 0.7067870000 0.5407560000 1 1 1 v 0.0 0.0 0.0 mag 0.0 
0.7666860000 0.6939050000 0.6832650000 1 1 1 v 0.0 0.0 0.0 mag 0.0 
0.8305990000 0.8109940000 0.6729470000 1 1 1 v 0.0 0.0 0.0 mag 0.0 
0.6907270000 0.8236030000 0.5294590000 1 1 1 v 0.0 0.0 0.0 mag 0.0 
0.6697850000 0.8726000000 0.7029900000 1 1 1 v 0.0 0.0 0.0 mag 0.0 
0.7107150000 0.7955460000 0.7835190000 1 1 1 v 0.0 0.0 0.0 mag 0.0 
0.4756470000 0.8230080000 0.5299160000 1 1 1 v 0.0 0.0 0.0 mag 0.0 
0.4147220000 0.7058020000 0.5416510000 1 1 1 v 0.0 0.0 0.0 mag 0.0 
0.5559950000 0.6933680000 0.6838290000 1 1 1 v 0.0 0.0 0.0 mag 0.0 
0.5732220000 0.6456890000 0.5073220000 1 1 1 v 0.0 0.0 0.0 mag 0.0 

