ATOMIC_SPECIES
Cu  63.546        Cu_ONCV_PBE-1.0.upf
N   14.007        N_ONCV_PBE-1.0.upf

NUMERICAL_ORBITAL
Cu_gga_8au_100Ry_4s2p2d1f.orb
N_gga_7au_100Ry_2s2p1d.orb

LATTICE_CONSTANT
1.8897261258369282 

LATTICE_VECTORS
10.210600000      0.0000000000      0.0000000000      
0.0000000000      30.252700000      0.0000000000      
5.1053100000      0.0000000000      8.8426600000      

ATOMIC_POSITIONS
Direct

Cu
0.0000000000
64
0.0500000000 0.3966590000 0.0500000000 0 0 0 v 0.0 0.0 0.0 mag 0.0 
0.3000000000 0.3966590000 0.0500000000 0 0 0 v 0.0 0.0 0.0 mag 0.0 
0.5500000000 0.3966590000 0.0500000000 0 0 0 v 0.0 0.0 0.0 mag 0.0 
0.8000000000 0.3966590000 0.0500000000 0 0 0 v 0.0 0.0 0.0 mag 0.0 
0.0500000000 0.3966590000 0.3000000000 0 0 0 v 0.0 0.0 0.0 mag 0.0 
0.3000000000 0.3966590000 0.3000000000 0 0 0 v 0.0 0.0 0.0 mag 0.0 
0.5500000000 0.3966590000 0.3000000000 0 0 0 v 0.0 0.0 0.0 mag 0.0 
0.8000000000 0.3966590000 0.3000000000 0 0 0 v 0.0 0.0 0.0 mag 0.0 
0.0500000000 0.3966590000 0.5500000000 0 0 0 v 0.0 0.0 0.0 mag 0.0 
0.3000000000 0.3966590000 0.5500000000 0 0 0 v 0.0 0.0 0.0 mag 0.0 
0.5500000000 0.3966590000 0.5500000000 0 0 0 v 0.0 0.0 0.0 mag 0.0 
0.8000000000 0.3966590000 0.5500000000 0 0 0 v 0.0 0.0 0.0 mag 0.0 
0.0500000000 0.3966590000 0.8000000000 0 0 0 v 0.0 0.0 0.0 mag 0.0 
0.3000000000 0.3966590000 0.8000000000 0 0 0 v 0.0 0.0 0.0 mag 0.0 
0.5500000000 0.3966590000 0.8000000000 0 0 0 v 0.0 0.0 0.0 mag 0.0 
0.8000000000 0.3966590000 0.8000000000 0 0 0 v 0.0 0.0 0.0 mag 0.0 
0.1333330000 0.4655530000 0.1333330000 0 0 0 v 0.0 0.0 0.0 mag 0.0 
0.3833330000 0.4655530000 0.1333330000 0 0 0 v 0.0 0.0 0.0 mag 0.0 
0.6333330000 0.4655530000 0.1333330000 0 0 0 v 0.0 0.0 0.0 mag 0.0 
0.8833330000 0.4655530000 0.1333330000 0 0 0 v 0.0 0.0 0.0 mag 0.0 
0.1333330000 0.4655530000 0.3833330000 0 0 0 v 0.0 0.0 0.0 mag 0.0 
0.3833330000 0.4655530000 0.3833330000 0 0 0 v 0.0 0.0 0.0 mag 0.0 
0.6333330000 0.4655530000 0.3833330000 0 0 0 v 0.0 0.0 0.0 mag 0.0 
0.8833330000 0.4655530000 0.3833330000 0 0 0 v 0.0 0.0 0.0 mag 0.0 
0.1333330000 0.4655530000 0.6333330000 0 0 0 v 0.0 0.0 0.0 mag 0.0 
0.3833330000 0.4655530000 0.6333330000 0 0 0 v 0.0 0.0 0.0 mag 0.0 
0.6333330000 0.4655530000 0.6333330000 0 0 0 v 0.0 0.0 0.0 mag 0.0 
0.8833330000 0.4655530000 0.6333330000 0 0 0 v 0.0 0.0 0.0 mag 0.0 
0.1333330000 0.4655530000 0.8833330000 0 0 0 v 0.0 0.0 0.0 mag 0.0 
0.3833330000 0.4655530000 0.8833330000 0 0 0 v 0.0 0.0 0.0 mag 0.0 
0.6333330000 0.4655530000 0.8833330000 0 0 0 v 0.0 0.0 0.0 mag 0.0 
0.8833330000 0.4655530000 0.8833330000 0 0 0 v 0.0 0.0 0.0 mag 0.0 
0.9667210000 0.5321780000 0.2160270000 1 1 1 v 0.0 0.0 0.0 mag 0.0 
0.2176060000 0.5320670000 0.2157960000 1 1 1 v 0.0 0.0 0.0 mag 0.0 
0.4662940000 0.5320880000 0.2169270000 1 1 1 v 0.0 0.0 0.0 mag 0.0 
0.7160870000 0.5320750000 0.2156750000 1 1 1 v 0.0 0.0 0.0 mag 0.0 
0.9687180000 0.5316020000 0.4651040000 1 1 1 v 0.0 0.0 0.0 mag 0.0 
0.2175470000 0.5320380000 0.4661560000 1 1 1 v 0.0 0.0 0.0 mag 0.0 
0.4657970000 0.5320610000 0.4661260000 1 1 1 v 0.0 0.0 0.0 mag 0.0 
0.7155820000 0.5316020000 0.4650850000 1 1 1 v 0.0 0.0 0.0 mag 0.0 
0.9669300000 0.5321060000 0.7159520000 1 1 1 v 0.0 0.0 0.0 mag 0.0 
0.2164110000 0.5321740000 0.7165600000 1 1 1 v 0.0 0.0 0.0 mag 0.0 
0.4664350000 0.5320170000 0.7158430000 1 1 1 v 0.0 0.0 0.0 mag 0.0 
0.7167380000 0.5320160000 0.7160360000 1 1 1 v 0.0 0.0 0.0 mag 0.0 
0.9663900000 0.5322970000 0.9665200000 1 1 1 v 0.0 0.0 0.0 mag 0.0 
0.2165340000 0.5322910000 0.9665470000 1 1 1 v 0.0 0.0 0.0 mag 0.0 
0.4666200000 0.5319620000 0.9668850000 1 1 1 v 0.0 0.0 0.0 mag 0.0 
0.7161140000 0.5320840000 0.9664950000 1 1 1 v 0.0 0.0 0.0 mag 0.0 
0.0501180000 0.5995870000 0.0487310000 1 1 1 v 0.0 0.0 0.0 mag 0.0 
0.2997520000 0.5996090000 0.0497730000 1 1 1 v 0.0 0.0 0.0 mag 0.0 
0.5492230000 0.5992400000 0.0505920000 1 1 1 v 0.0 0.0 0.0 mag 0.0 
0.7995590000 0.5996050000 0.0495290000 1 1 1 v 0.0 0.0 0.0 mag 0.0 
0.0524410000 0.5992810000 0.2963690000 1 1 1 v 0.0 0.0 0.0 mag 0.0 
0.3001610000 0.5995260000 0.2996500000 1 1 1 v 0.0 0.0 0.0 mag 0.0 
0.5493270000 0.5995250000 0.2996770000 1 1 1 v 0.0 0.0 0.0 mag 0.0 
0.8002670000 0.5992660000 0.2963490000 1 1 1 v 0.0 0.0 0.0 mag 0.0 
0.0519190000 0.5987110000 0.5479270000 1 1 1 v 0.0 0.0 0.0 mag 0.0 
0.2996820000 0.5996060000 0.5497220000 1 1 1 v 0.0 0.0 0.0 mag 0.0 
0.5491990000 0.5987600000 0.5482710000 1 1 1 v 0.0 0.0 0.0 mag 0.0 
0.8039540000 0.5962960000 0.5411440000 1 1 1 v 0.0 0.0 0.0 mag 0.0 
0.0505390000 0.5994810000 0.7995000000 1 1 1 v 0.0 0.0 0.0 mag 0.0 
0.2989570000 0.5995060000 0.7995620000 1 1 1 v 0.0 0.0 0.0 mag 0.0 
0.5454220000 0.5979680000 0.8021240000 1 1 1 v 0.0 0.0 0.0 mag 0.0 
0.8013790000 0.5984520000 0.8013830000 1 1 1 v 0.0 0.0 0.0 mag 0.0 

N
0.0000000000
2
0.6870900000 0.6729650000 0.6622310000 1 1 1 v 0.0 0.0 0.0 mag 0.0 
0.7898150000 0.6718250000 0.6740400000 1 1 1 v 0.0 0.0 0.0 mag 0.0 

