ATOMIC_SPECIES
Cu   63.546  Cu_ONCV_PBE-1.0.upf
Ag  107.868  Ag_ONCV_PBE-1.0.upf

NUMERICAL_ORBITAL
Cu_gga_8au_100Ry_4s2p2d1f.orb
Ag_gga_7au_100Ry_4s2p2d1f.orb

LATTICE_CONSTANT
1.889726

LATTICE_VECTORS
15.42244000000  0.000000000000  0.000000000000
0.000000000000  15.42244000000  0.000000000000
0.000000000000  0.000000000000  17.40183466000

ATOMIC_POSITIONS
Direct

Cu
0.000
32
0.324202914714  0.324202914714  0.287326026117  0  0  0  mag  0.0
0.324202914714  0.441400971571  0.391193235254  0  0  0  mag  0.0
0.441400971571  0.324202914714  0.391193235254  0  0  0  mag  0.0
0.441400971571  0.441400971571  0.287326026117  0  0  0  mag  0.0
0.558599028429  0.324202914714  0.287326026117  0  0  0  mag  0.0
0.558599028429  0.441400971571  0.391193235254  0  0  0  mag  0.0
0.675797085286  0.324202914714  0.391193235254  0  0  0  mag  0.0
0.675797085286  0.441400971571  0.287326026117  0  0  0  mag  0.0
0.324202914714  0.558599028429  0.287326026117  0  0  0  mag  0.0
0.324202914714  0.675797085286  0.391193235254  0  0  0  mag  0.0
0.441400971571  0.558599028429  0.391193235254  0  0  0  mag  0.0
0.441400971571  0.675797085286  0.287326026117  0  0  0  mag  0.0
0.558599028429  0.558599028429  0.287326026117  0  0  0  mag  0.0
0.558599028429  0.675797085286  0.391193235254  0  0  0  mag  0.0
0.675797085286  0.558599028429  0.391193235254  0  0  0  mag  0.0
0.675797085286  0.675797085286  0.287326026117  0  0  0  mag  0.0
0.324202914714  0.324202914714  0.495060444391  1  1  1  mag  0.0
0.324202914714  0.441400971571  0.598927653528  1  1  1  mag  0.0
0.441400971571  0.324202914714  0.598927653528  1  1  1  mag  0.0
0.441400971571  0.441400971571  0.495060444391  1  1  1  mag  0.0
0.558599028429  0.324202914714  0.495060444391  1  1  1  mag  0.0
0.558599028429  0.441400971571  0.598927653528  1  1  1  mag  0.0
0.675797085286  0.324202914714  0.598927653528  1  1  1  mag  0.0
0.675797085286  0.441400971571  0.495060444391  1  1  1  mag  0.0
0.324202914714  0.558599028429  0.495060444391  1  1  1  mag  0.0
0.324202914714  0.675797085286  0.598927653528  1  1  1  mag  0.0
0.441400971571  0.558599028429  0.598927653528  1  1  1  mag  0.0
0.441400971571  0.675797085286  0.495060444391  1  1  1  mag  0.0
0.558599028429  0.558599028429  0.495060444391  1  1  1  mag  0.0
0.558599028429  0.675797085286  0.598927653528  1  1  1  mag  0.0
0.675797085286  0.558599028429  0.598927653528  1  1  1  mag  0.0
0.675797085286  0.675797085286  0.495060444391  1  1  1  mag  0.0

Ag
0.000
1
0.559844523953  0.560019404841  0.712673973883  1  1  1  mag  0.0
