ATOMIC_SPECIES
Li  6.94          Li_ONCV_PBE-1.2.upf
Si  28.085        Si_ONCV_PBE-1.2.upf

NUMERICAL_ORBITAL
Li_gga_8au_100Ry_4s1p.orb
Si_gga_8au_100Ry_2s2p1d.orb

LATTICE_CONSTANT
1.8897261258369282 

LATTICE_VECTORS
10.862000000      0.0000000000      0.0000000000      
0.0000000000      10.862000000      0.0000000000      
0.0000000000      0.0000000000      10.862000000      

ATOMIC_POSITIONS
Direct

Li
0.0000000000
1
0.5963090000 0.5963070000 0.5963090000 1 1 1 v 0.0 0.0 0.0 mag 0.0 

Si
0.0000000000
64
0.1279870000 0.3769720000 0.1279860000 1 1 1 v 0.0 0.0 0.0 mag 0.0 
0.1271560000 0.3775740000 0.6274750000 1 1 1 v 0.0 0.0 0.0 mag 0.0 
0.1266060000 0.8778100000 0.1266160000 1 1 1 v 0.0 0.0 0.0 mag 0.0 
0.1266570000 0.8777760000 0.6275660000 1 1 1 v 0.0 0.0 0.0 mag 0.0 
0.6274840000 0.3775780000 0.1271490000 1 1 1 v 0.0 0.0 0.0 mag 0.0 
0.6291520000 0.3719210000 0.6291500000 1 1 1 v 0.0 0.0 0.0 mag 0.0 
0.6275600000 0.8777830000 0.1266690000 1 1 1 v 0.0 0.0 0.0 mag 0.0 
0.6257850000 0.8774730000 0.6257920000 1 1 1 v 0.0 0.0 0.0 mag 0.0 
0.0029560000 0.0029460000 0.2523300000 1 1 1 v 0.0 0.0 0.0 mag 0.0 
0.0017440000 0.0017430000 0.7528210000 1 1 1 v 0.0 0.0 0.0 mag 0.0 
0.0033550000 0.5030900000 0.2512640000 1 1 1 v 0.0 0.0 0.0 mag 0.0 
0.0023320000 0.5024090000 0.7525620000 1 1 1 v 0.0 0.0 0.0 mag 0.0 
0.5030900000 0.0033430000 0.2512760000 1 1 1 v 0.0 0.0 0.0 mag 0.0 
0.5023930000 0.0023350000 0.7525760000 1 1 1 v 0.0 0.0 0.0 mag 0.0 
0.5024700000 0.5024590000 0.2516080000 1 1 1 v 0.0 0.0 0.0 mag 0.0 
0.4964580000 0.4964420000 0.7591000000 1 1 1 v 0.0 0.0 0.0 mag 0.0 
0.1279870000 0.1279860000 0.3769770000 1 1 1 v 0.0 0.0 0.0 mag 0.0 
0.1266010000 0.1266150000 0.8778130000 1 1 1 v 0.0 0.0 0.0 mag 0.0 
0.1271550000 0.6274720000 0.3775780000 1 1 1 v 0.0 0.0 0.0 mag 0.0 
0.1266540000 0.6275570000 0.8777810000 1 1 1 v 0.0 0.0 0.0 mag 0.0 
0.6274830000 0.1271650000 0.3775670000 1 1 1 v 0.0 0.0 0.0 mag 0.0 
0.6275590000 0.1266730000 0.8777730000 1 1 1 v 0.0 0.0 0.0 mag 0.0 
0.6291470000 0.6291590000 0.3719150000 1 1 1 v 0.0 0.0 0.0 mag 0.0 
0.6257760000 0.6258000000 0.8774620000 1 1 1 v 0.0 0.0 0.0 mag 0.0 
0.0029500000 0.2523380000 0.0029430000 1 1 1 v 0.0 0.0 0.0 mag 0.0 
0.0033550000 0.2512700000 0.5030820000 1 1 1 v 0.0 0.0 0.0 mag 0.0 
0.0017430000 0.7528240000 0.0017460000 1 1 1 v 0.0 0.0 0.0 mag 0.0 
0.0023350000 0.7525670000 0.5024070000 1 1 1 v 0.0 0.0 0.0 mag 0.0 
0.5030900000 0.2512700000 0.0033470000 1 1 1 v 0.0 0.0 0.0 mag 0.0 
0.5024670000 0.2516030000 0.5024620000 1 1 1 v 0.0 0.0 0.0 mag 0.0 
0.5023930000 0.7525720000 0.0023450000 1 1 1 v 0.0 0.0 0.0 mag 0.0 
0.4964540000 0.7590950000 0.4964520000 1 1 1 v 0.0 0.0 0.0 mag 0.0 
0.3785240000 0.3785130000 0.3785190000 1 1 1 v 0.0 0.0 0.0 mag 0.0 
0.3721820000 0.3721840000 0.8815850000 1 1 1 v 0.0 0.0 0.0 mag 0.0 
0.3721880000 0.8815770000 0.3721960000 1 1 1 v 0.0 0.0 0.0 mag 0.0 
0.3779660000 0.8786630000 0.8786630000 1 1 1 v 0.0 0.0 0.0 mag 0.0 
0.8815890000 0.3721800000 0.3721710000 1 1 1 v 0.0 0.0 0.0 mag 0.0 
0.8786470000 0.3779910000 0.8786480000 1 1 1 v 0.0 0.0 0.0 mag 0.0 
0.8786550000 0.8786550000 0.3779790000 1 1 1 v 0.0 0.0 0.0 mag 0.0 
0.8763110000 0.8763240000 0.8763200000 1 1 1 v 0.0 0.0 0.0 mag 0.0 
0.2523220000 0.0029530000 0.0029600000 1 1 1 v 0.0 0.0 0.0 mag 0.0 
0.2512710000 0.0033430000 0.5030980000 1 1 1 v 0.0 0.0 0.0 mag 0.0 
0.2512700000 0.5030920000 0.0033510000 1 1 1 v 0.0 0.0 0.0 mag 0.0 
0.2516130000 0.5024610000 0.5024650000 1 1 1 v 0.0 0.0 0.0 mag 0.0 
0.7528180000 0.0017440000 0.0017430000 1 1 1 v 0.0 0.0 0.0 mag 0.0 
0.7525720000 0.0023320000 0.5023960000 1 1 1 v 0.0 0.0 0.0 mag 0.0 
0.7525670000 0.5024090000 0.0023230000 1 1 1 v 0.0 0.0 0.0 mag 0.0 
0.7591040000 0.4964480000 0.4964470000 1 1 1 v 0.0 0.0 0.0 mag 0.0 
0.3769810000 0.1279850000 0.1279870000 1 1 1 v 0.0 0.0 0.0 mag 0.0 
0.3775720000 0.1271650000 0.6274810000 1 1 1 v 0.0 0.0 0.0 mag 0.0 
0.3775660000 0.6274710000 0.1271740000 1 1 1 v 0.0 0.0 0.0 mag 0.0 
0.3719080000 0.6291570000 0.6291560000 1 1 1 v 0.0 0.0 0.0 mag 0.0 
0.8778170000 0.1266110000 0.1266010000 1 1 1 v 0.0 0.0 0.0 mag 0.0 
0.8777770000 0.1266710000 0.6275510000 1 1 1 v 0.0 0.0 0.0 mag 0.0 
0.8777710000 0.6275560000 0.1266570000 1 1 1 v 0.0 0.0 0.0 mag 0.0 
0.8774500000 0.6257940000 0.6257870000 1 1 1 v 0.0 0.0 0.0 mag 0.0 
0.2533950000 0.2533800000 0.2533870000 1 1 1 v 0.0 0.0 0.0 mag 0.0 
0.2505780000 0.2505800000 0.7515420000 1 1 1 v 0.0 0.0 0.0 mag 0.0 
0.2505780000 0.7515360000 0.2505900000 1 1 1 v 0.0 0.0 0.0 mag 0.0 
0.2507510000 0.7552620000 0.7552700000 1 1 1 v 0.0 0.0 0.0 mag 0.0 
0.7515490000 0.2505820000 0.2505680000 1 1 1 v 0.0 0.0 0.0 mag 0.0 
0.7552640000 0.2507640000 0.7552550000 1 1 1 v 0.0 0.0 0.0 mag 0.0 
0.7552640000 0.7552610000 0.2507580000 1 1 1 v 0.0 0.0 0.0 mag 0.0 
0.7508250000 0.7508350000 0.7508310000 1 1 1 v 0.0 0.0 0.0 mag 0.0 

