ATOMIC_SPECIES
H   1.008         H_ONCV_PBE-1.0.upf
Au  196.966569    Au_ONCV_PBE-1.0.upf

NUMERICAL_ORBITAL
H_gga_6au_100Ry_2s1p.orb
Au_gga_7au_100Ry_4s2p2d1f.orb

LATTICE_CONSTANT
1.8897261258369282 

LATTICE_VECTORS
11.535200000      0.0000000000      0.0000000000      
0.0000000000      19.063800000      0.0000000000      
-5.767600000      0.0000000000      9.9897700000      

ATOMIC_POSITIONS
Direct

H
0.0000000000
2
0.4972660000 0.6088660000 0.6504240000 1 1 1 v 0.0 0.0 0.0 mag 0.0 
0.4322720000 0.6129210000 0.5853180000 1 1 1 v 0.0 0.0 0.0 mag 0.0 

Au
0.0000000000
64
0.0400000000 0.1000000000 0.0400000000 0 0 0 v 0.0 0.0 0.0 mag 0.0 
0.2900000000 0.1000000000 0.0400000000 0 0 0 v 0.0 0.0 0.0 mag 0.0 
0.5400000000 0.1000000000 0.0400000000 0 0 0 v 0.0 0.0 0.0 mag 0.0 
0.7900000000 0.1000000000 0.0400000000 0 0 0 v 0.0 0.0 0.0 mag 0.0 
0.0400000000 0.1000000000 0.2900000000 0 0 0 v 0.0 0.0 0.0 mag 0.0 
0.2900000000 0.1000000000 0.2900000000 0 0 0 v 0.0 0.0 0.0 mag 0.0 
0.5400000000 0.1000000000 0.2900000000 0 0 0 v 0.0 0.0 0.0 mag 0.0 
0.7900000000 0.1000000000 0.2900000000 0 0 0 v 0.0 0.0 0.0 mag 0.0 
0.0400000000 0.1000000000 0.5400000000 0 0 0 v 0.0 0.0 0.0 mag 0.0 
0.2900000000 0.1000000000 0.5400000000 0 0 0 v 0.0 0.0 0.0 mag 0.0 
0.5400000000 0.1000000000 0.5400000000 0 0 0 v 0.0 0.0 0.0 mag 0.0 
0.7900000000 0.1000000000 0.5400000000 0 0 0 v 0.0 0.0 0.0 mag 0.0 
0.0400000000 0.1000000000 0.7900000000 0 0 0 v 0.0 0.0 0.0 mag 0.0 
0.2900000000 0.1000000000 0.7900000000 0 0 0 v 0.0 0.0 0.0 mag 0.0 
0.5400000000 0.1000000000 0.7900000000 0 0 0 v 0.0 0.0 0.0 mag 0.0 
0.7900000000 0.1000000000 0.7900000000 0 0 0 v 0.0 0.0 0.0 mag 0.0 
0.1233330000 0.2235120000 0.2066670000 0 0 0 v 0.0 0.0 0.0 mag 0.0 
0.3733330000 0.2235120000 0.2066670000 0 0 0 v 0.0 0.0 0.0 mag 0.0 
0.6233330000 0.2235120000 0.2066670000 0 0 0 v 0.0 0.0 0.0 mag 0.0 
0.8733330000 0.2235120000 0.2066670000 0 0 0 v 0.0 0.0 0.0 mag 0.0 
0.1233330000 0.2235120000 0.4566670000 0 0 0 v 0.0 0.0 0.0 mag 0.0 
0.3733330000 0.2235120000 0.4566670000 0 0 0 v 0.0 0.0 0.0 mag 0.0 
0.6233330000 0.2235120000 0.4566670000 0 0 0 v 0.0 0.0 0.0 mag 0.0 
0.8733330000 0.2235120000 0.4566670000 0 0 0 v 0.0 0.0 0.0 mag 0.0 
0.1233330000 0.2235120000 0.7066670000 0 0 0 v 0.0 0.0 0.0 mag 0.0 
0.3733330000 0.2235120000 0.7066670000 0 0 0 v 0.0 0.0 0.0 mag 0.0 
0.6233330000 0.2235120000 0.7066670000 0 0 0 v 0.0 0.0 0.0 mag 0.0 
0.8733330000 0.2235120000 0.7066670000 0 0 0 v 0.0 0.0 0.0 mag 0.0 
0.1233330000 0.2235120000 0.9566670000 0 0 0 v 0.0 0.0 0.0 mag 0.0 
0.3733330000 0.2235120000 0.9566670000 0 0 0 v 0.0 0.0 0.0 mag 0.0 
0.6233330000 0.2235120000 0.9566670000 0 0 0 v 0.0 0.0 0.0 mag 0.0 
0.8733330000 0.2235120000 0.9566670000 0 0 0 v 0.0 0.0 0.0 mag 0.0 
0.2062330000 0.3475680000 0.1222810000 1 1 1 v 0.0 0.0 0.0 mag 0.0 
0.4573080000 0.3476130000 0.1235480000 1 1 1 v 0.0 0.0 0.0 mag 0.0 
0.7066830000 0.3475680000 0.1233160000 1 1 1 v 0.0 0.0 0.0 mag 0.0 
0.9564280000 0.3476760000 0.1236790000 1 1 1 v 0.0 0.0 0.0 mag 0.0 
0.2059520000 0.3468460000 0.3718560000 1 1 1 v 0.0 0.0 0.0 mag 0.0 
0.4558970000 0.3468210000 0.3718840000 1 1 1 v 0.0 0.0 0.0 mag 0.0 
0.7066110000 0.3475070000 0.3734660000 1 1 1 v 0.0 0.0 0.0 mag 0.0 
0.9567660000 0.3475610000 0.3733910000 1 1 1 v 0.0 0.0 0.0 mag 0.0 
0.2061260000 0.3468650000 0.6239500000 1 1 1 v 0.0 0.0 0.0 mag 0.0 
0.4567290000 0.3462670000 0.6233980000 1 1 1 v 0.0 0.0 0.0 mag 0.0 
0.7082270000 0.3468110000 0.6242230000 1 1 1 v 0.0 0.0 0.0 mag 0.0 
0.9565350000 0.3476110000 0.6227500000 1 1 1 v 0.0 0.0 0.0 mag 0.0 
0.2064330000 0.3476140000 0.8736400000 1 1 1 v 0.0 0.0 0.0 mag 0.0 
0.4561750000 0.3468680000 0.8740030000 1 1 1 v 0.0 0.0 0.0 mag 0.0 
0.7082540000 0.3468380000 0.8741760000 1 1 1 v 0.0 0.0 0.0 mag 0.0 
0.9577930000 0.3475720000 0.8738430000 1 1 1 v 0.0 0.0 0.0 mag 0.0 
0.0403470000 0.4753920000 0.0398930000 1 1 1 v 0.0 0.0 0.0 mag 0.0 
0.2900850000 0.4753210000 0.0397970000 1 1 1 v 0.0 0.0 0.0 mag 0.0 
0.5402060000 0.4751790000 0.0406390000 1 1 1 v 0.0 0.0 0.0 mag 0.0 
0.7908370000 0.4752290000 0.0406620000 1 1 1 v 0.0 0.0 0.0 mag 0.0 
0.0395700000 0.4752180000 0.2894050000 1 1 1 v 0.0 0.0 0.0 mag 0.0 
0.2900300000 0.4744130000 0.2899350000 1 1 1 v 0.0 0.0 0.0 mag 0.0 
0.5400310000 0.4750650000 0.2894560000 1 1 1 v 0.0 0.0 0.0 mag 0.0 
0.7901190000 0.4749620000 0.2901270000 1 1 1 v 0.0 0.0 0.0 mag 0.0 
0.0396070000 0.4751650000 0.5400460000 1 1 1 v 0.0 0.0 0.0 mag 0.0 
0.2881390000 0.4712980000 0.5389150000 1 1 1 v 0.0 0.0 0.0 mag 0.0 
0.5411480000 0.4709330000 0.5390740000 1 1 1 v 0.0 0.0 0.0 mag 0.0 
0.7907880000 0.4750620000 0.5402120000 1 1 1 v 0.0 0.0 0.0 mag 0.0 
0.0404580000 0.4753170000 0.7901790000 1 1 1 v 0.0 0.0 0.0 mag 0.0 
0.2904440000 0.4745500000 0.7898010000 1 1 1 v 0.0 0.0 0.0 mag 0.0 
0.5413230000 0.4713220000 0.7920860000 1 1 1 v 0.0 0.0 0.0 mag 0.0 
0.7902890000 0.4744170000 0.7901890000 1 1 1 v 0.0 0.0 0.0 mag 0.0 

