ATOMIC_SPECIES
H   1.008         H_ONCV_PBE-1.0.upf
Au  196.966569    Au_ONCV_PBE-1.0.upf

NUMERICAL_ORBITAL
H_gga_6au_100Ry_2s1p.orb
Au_gga_7au_100Ry_4s2p2d1f.orb

LATTICE_CONSTANT
1.8897261258369282 

LATTICE_VECTORS
11.535200000      0.0000000000      0.0000000000      
0.0000000000      19.063800000      0.0000000000      
-5.767600000      0.0000000000      9.9897700000      

ATOMIC_POSITIONS
Direct

H
0.0000000000
2
0.5014120000 0.6103640000 0.6455270000 1 1 1 v 0.0 0.0 0.0 mag 0.0 
0.4363430000 0.6133960000 0.5803830000 1 1 1 v 0.0 0.0 0.0 mag 0.0 

Au
0.0000000000
64
0.0400000000 0.1000000000 0.0400000000 0 0 0 v 0.0 0.0 0.0 mag 0.0 
0.2900000000 0.1000000000 0.0400000000 0 0 0 v 0.0 0.0 0.0 mag 0.0 
0.5400000000 0.1000000000 0.0400000000 0 0 0 v 0.0 0.0 0.0 mag 0.0 
0.7900000000 0.1000000000 0.0400000000 0 0 0 v 0.0 0.0 0.0 mag 0.0 
0.0400000000 0.1000000000 0.2900000000 0 0 0 v 0.0 0.0 0.0 mag 0.0 
0.2900000000 0.1000000000 0.2900000000 0 0 0 v 0.0 0.0 0.0 mag 0.0 
0.5400000000 0.1000000000 0.2900000000 0 0 0 v 0.0 0.0 0.0 mag 0.0 
0.7900000000 0.1000000000 0.2900000000 0 0 0 v 0.0 0.0 0.0 mag 0.0 
0.0400000000 0.1000000000 0.5400000000 0 0 0 v 0.0 0.0 0.0 mag 0.0 
0.2900000000 0.1000000000 0.5400000000 0 0 0 v 0.0 0.0 0.0 mag 0.0 
0.5400000000 0.1000000000 0.5400000000 0 0 0 v 0.0 0.0 0.0 mag 0.0 
0.7900000000 0.1000000000 0.5400000000 0 0 0 v 0.0 0.0 0.0 mag 0.0 
0.0400000000 0.1000000000 0.7900000000 0 0 0 v 0.0 0.0 0.0 mag 0.0 
0.2900000000 0.1000000000 0.7900000000 0 0 0 v 0.0 0.0 0.0 mag 0.0 
0.5400000000 0.1000000000 0.7900000000 0 0 0 v 0.0 0.0 0.0 mag 0.0 
0.7900000000 0.1000000000 0.7900000000 0 0 0 v 0.0 0.0 0.0 mag 0.0 
0.1233330000 0.2235120000 0.2066670000 0 0 0 v 0.0 0.0 0.0 mag 0.0 
0.3733330000 0.2235120000 0.2066670000 0 0 0 v 0.0 0.0 0.0 mag 0.0 
0.6233330000 0.2235120000 0.2066670000 0 0 0 v 0.0 0.0 0.0 mag 0.0 
0.8733330000 0.2235120000 0.2066670000 0 0 0 v 0.0 0.0 0.0 mag 0.0 
0.1233330000 0.2235120000 0.4566670000 0 0 0 v 0.0 0.0 0.0 mag 0.0 
0.3733330000 0.2235120000 0.4566670000 0 0 0 v 0.0 0.0 0.0 mag 0.0 
0.6233330000 0.2235120000 0.4566670000 0 0 0 v 0.0 0.0 0.0 mag 0.0 
0.8733330000 0.2235120000 0.4566670000 0 0 0 v 0.0 0.0 0.0 mag 0.0 
0.1233330000 0.2235120000 0.7066670000 0 0 0 v 0.0 0.0 0.0 mag 0.0 
0.3733330000 0.2235120000 0.7066670000 0 0 0 v 0.0 0.0 0.0 mag 0.0 
0.6233330000 0.2235120000 0.7066670000 0 0 0 v 0.0 0.0 0.0 mag 0.0 
0.8733330000 0.2235120000 0.7066670000 0 0 0 v 0.0 0.0 0.0 mag 0.0 
0.1233330000 0.2235120000 0.9566670000 0 0 0 v 0.0 0.0 0.0 mag 0.0 
0.3733330000 0.2235120000 0.9566670000 0 0 0 v 0.0 0.0 0.0 mag 0.0 
0.6233330000 0.2235120000 0.9566670000 0 0 0 v 0.0 0.0 0.0 mag 0.0 
0.8733330000 0.2235120000 0.9566670000 0 0 0 v 0.0 0.0 0.0 mag 0.0 
0.2062850000 0.3475440000 0.1223430000 1 1 1 v 0.0 0.0 0.0 mag 0.0 
0.4572890000 0.3476150000 0.1235810000 1 1 1 v 0.0 0.0 0.0 mag 0.0 
0.7067580000 0.3475720000 0.1234290000 1 1 1 v 0.0 0.0 0.0 mag 0.0 
0.9565010000 0.3476670000 0.1236440000 1 1 1 v 0.0 0.0 0.0 mag 0.0 
0.2059420000 0.3468670000 0.3719890000 1 1 1 v 0.0 0.0 0.0 mag 0.0 
0.4559170000 0.3467910000 0.3719850000 1 1 1 v 0.0 0.0 0.0 mag 0.0 
0.7066400000 0.3475000000 0.3734940000 1 1 1 v 0.0 0.0 0.0 mag 0.0 
0.9567120000 0.3475650000 0.3733740000 1 1 1 v 0.0 0.0 0.0 mag 0.0 
0.2060770000 0.3468760000 0.6239360000 1 1 1 v 0.0 0.0 0.0 mag 0.0 
0.4566440000 0.3462600000 0.6235270000 1 1 1 v 0.0 0.0 0.0 mag 0.0 
0.7081680000 0.3467830000 0.6242470000 1 1 1 v 0.0 0.0 0.0 mag 0.0 
0.9565510000 0.3476150000 0.6228200000 1 1 1 v 0.0 0.0 0.0 mag 0.0 
0.2064510000 0.3476170000 0.8736680000 1 1 1 v 0.0 0.0 0.0 mag 0.0 
0.4562380000 0.3468800000 0.8741020000 1 1 1 v 0.0 0.0 0.0 mag 0.0 
0.7081590000 0.3468630000 0.8742280000 1 1 1 v 0.0 0.0 0.0 mag 0.0 
0.9577620000 0.3475490000 0.8738290000 1 1 1 v 0.0 0.0 0.0 mag 0.0 
0.0403300000 0.4753750000 0.0399940000 1 1 1 v 0.0 0.0 0.0 mag 0.0 
0.2900990000 0.4753270000 0.0399510000 1 1 1 v 0.0 0.0 0.0 mag 0.0 
0.5402210000 0.4751660000 0.0407250000 1 1 1 v 0.0 0.0 0.0 mag 0.0 
0.7907720000 0.4751960000 0.0407000000 1 1 1 v 0.0 0.0 0.0 mag 0.0 
0.0396240000 0.4751810000 0.2895580000 1 1 1 v 0.0 0.0 0.0 mag 0.0 
0.2899950000 0.4743320000 0.2900140000 1 1 1 v 0.0 0.0 0.0 mag 0.0 
0.5400720000 0.4750160000 0.2896160000 1 1 1 v 0.0 0.0 0.0 mag 0.0 
0.7901360000 0.4750330000 0.2901960000 1 1 1 v 0.0 0.0 0.0 mag 0.0 
0.0396040000 0.4751520000 0.5401120000 1 1 1 v 0.0 0.0 0.0 mag 0.0 
0.2882770000 0.4714820000 0.5391860000 1 1 1 v 0.0 0.0 0.0 mag 0.0 
0.5410600000 0.4708310000 0.5392610000 1 1 1 v 0.0 0.0 0.0 mag 0.0 
0.7907130000 0.4750190000 0.5402560000 1 1 1 v 0.0 0.0 0.0 mag 0.0 
0.0403880000 0.4753270000 0.7902490000 1 1 1 v 0.0 0.0 0.0 mag 0.0 
0.2903590000 0.4745150000 0.7899620000 1 1 1 v 0.0 0.0 0.0 mag 0.0 
0.5411430000 0.4715030000 0.7920530000 1 1 1 v 0.0 0.0 0.0 mag 0.0 
0.7902910000 0.4743450000 0.7903080000 1 1 1 v 0.0 0.0 0.0 mag 0.0 

