ATOMIC_SPECIES
H   1.008         H_ONCV_PBE-1.0.upf
Au  196.966569    Au_ONCV_PBE-1.0.upf

NUMERICAL_ORBITAL
H_gga_6au_100Ry_2s1p.orb
Au_gga_7au_100Ry_4s2p2d1f.orb

LATTICE_CONSTANT
1.8897261258369282 

LATTICE_VECTORS
11.535200000      0.0000000000      0.0000000000      
0.0000000000      19.063800000      0.0000000000      
-5.767600000      0.0000000000      9.9897700000      

ATOMIC_POSITIONS
Direct

H
0.0000000000
2
0.4974110000 0.6167120000 0.6500180000 1 1 1 v 0.0 0.0 0.0 mag 0.0 
0.4326010000 0.6215100000 0.5852240000 1 1 1 v 0.0 0.0 0.0 mag 0.0 

Au
0.0000000000
64
0.0400000000 0.1000000000 0.0400000000 0 0 0 v 0.0 0.0 0.0 mag 0.0 
0.2900000000 0.1000000000 0.0400000000 0 0 0 v 0.0 0.0 0.0 mag 0.0 
0.5400000000 0.1000000000 0.0400000000 0 0 0 v 0.0 0.0 0.0 mag 0.0 
0.7900000000 0.1000000000 0.0400000000 0 0 0 v 0.0 0.0 0.0 mag 0.0 
0.0400000000 0.1000000000 0.2900000000 0 0 0 v 0.0 0.0 0.0 mag 0.0 
0.2900000000 0.1000000000 0.2900000000 0 0 0 v 0.0 0.0 0.0 mag 0.0 
0.5400000000 0.1000000000 0.2900000000 0 0 0 v 0.0 0.0 0.0 mag 0.0 
0.7900000000 0.1000000000 0.2900000000 0 0 0 v 0.0 0.0 0.0 mag 0.0 
0.0400000000 0.1000000000 0.5400000000 0 0 0 v 0.0 0.0 0.0 mag 0.0 
0.2900000000 0.1000000000 0.5400000000 0 0 0 v 0.0 0.0 0.0 mag 0.0 
0.5400000000 0.1000000000 0.5400000000 0 0 0 v 0.0 0.0 0.0 mag 0.0 
0.7900000000 0.1000000000 0.5400000000 0 0 0 v 0.0 0.0 0.0 mag 0.0 
0.0400000000 0.1000000000 0.7900000000 0 0 0 v 0.0 0.0 0.0 mag 0.0 
0.2900000000 0.1000000000 0.7900000000 0 0 0 v 0.0 0.0 0.0 mag 0.0 
0.5400000000 0.1000000000 0.7900000000 0 0 0 v 0.0 0.0 0.0 mag 0.0 
0.7900000000 0.1000000000 0.7900000000 0 0 0 v 0.0 0.0 0.0 mag 0.0 
0.1233330000 0.2235120000 0.2066670000 0 0 0 v 0.0 0.0 0.0 mag 0.0 
0.3733330000 0.2235120000 0.2066670000 0 0 0 v 0.0 0.0 0.0 mag 0.0 
0.6233330000 0.2235120000 0.2066670000 0 0 0 v 0.0 0.0 0.0 mag 0.0 
0.8733330000 0.2235120000 0.2066670000 0 0 0 v 0.0 0.0 0.0 mag 0.0 
0.1233330000 0.2235120000 0.4566670000 0 0 0 v 0.0 0.0 0.0 mag 0.0 
0.3733330000 0.2235120000 0.4566670000 0 0 0 v 0.0 0.0 0.0 mag 0.0 
0.6233330000 0.2235120000 0.4566670000 0 0 0 v 0.0 0.0 0.0 mag 0.0 
0.8733330000 0.2235120000 0.4566670000 0 0 0 v 0.0 0.0 0.0 mag 0.0 
0.1233330000 0.2235120000 0.7066670000 0 0 0 v 0.0 0.0 0.0 mag 0.0 
0.3733330000 0.2235120000 0.7066670000 0 0 0 v 0.0 0.0 0.0 mag 0.0 
0.6233330000 0.2235120000 0.7066670000 0 0 0 v 0.0 0.0 0.0 mag 0.0 
0.8733330000 0.2235120000 0.7066670000 0 0 0 v 0.0 0.0 0.0 mag 0.0 
0.1233330000 0.2235120000 0.9566670000 0 0 0 v 0.0 0.0 0.0 mag 0.0 
0.3733330000 0.2235120000 0.9566670000 0 0 0 v 0.0 0.0 0.0 mag 0.0 
0.6233330000 0.2235120000 0.9566670000 0 0 0 v 0.0 0.0 0.0 mag 0.0 
0.8733330000 0.2235120000 0.9566670000 0 0 0 v 0.0 0.0 0.0 mag 0.0 
0.2063570000 0.3475680000 0.1225930000 1 1 1 v 0.0 0.0 0.0 mag 0.0 
0.4571420000 0.3476000000 0.1234940000 1 1 1 v 0.0 0.0 0.0 mag 0.0 
0.7067190000 0.3475640000 0.1233480000 1 1 1 v 0.0 0.0 0.0 mag 0.0 
0.9565120000 0.3476350000 0.1235930000 1 1 1 v 0.0 0.0 0.0 mag 0.0 
0.2061470000 0.3470010000 0.3722850000 1 1 1 v 0.0 0.0 0.0 mag 0.0 
0.4561520000 0.3469600000 0.3722640000 1 1 1 v 0.0 0.0 0.0 mag 0.0 
0.7066810000 0.3475150000 0.3734060000 1 1 1 v 0.0 0.0 0.0 mag 0.0 
0.9567530000 0.3475570000 0.3733750000 1 1 1 v 0.0 0.0 0.0 mag 0.0 
0.2062350000 0.3470160000 0.6238170000 1 1 1 v 0.0 0.0 0.0 mag 0.0 
0.4567040000 0.3464770000 0.6234270000 1 1 1 v 0.0 0.0 0.0 mag 0.0 
0.7078480000 0.3469510000 0.6239690000 1 1 1 v 0.0 0.0 0.0 mag 0.0 
0.9565920000 0.3476000000 0.6229250000 1 1 1 v 0.0 0.0 0.0 mag 0.0 
0.2064560000 0.3476070000 0.8736190000 1 1 1 v 0.0 0.0 0.0 mag 0.0 
0.4563140000 0.3470190000 0.8739020000 1 1 1 v 0.0 0.0 0.0 mag 0.0 
0.7078270000 0.3469970000 0.8739850000 1 1 1 v 0.0 0.0 0.0 mag 0.0 
0.9574700000 0.3475730000 0.8737130000 1 1 1 v 0.0 0.0 0.0 mag 0.0 
0.0402470000 0.4752620000 0.0400040000 1 1 1 v 0.0 0.0 0.0 mag 0.0 
0.2900860000 0.4752390000 0.0399850000 1 1 1 v 0.0 0.0 0.0 mag 0.0 
0.5401750000 0.4750900000 0.0404740000 1 1 1 v 0.0 0.0 0.0 mag 0.0 
0.7905740000 0.4751190000 0.0404660000 1 1 1 v 0.0 0.0 0.0 mag 0.0 
0.0397960000 0.4751020000 0.2896920000 1 1 1 v 0.0 0.0 0.0 mag 0.0 
0.2901050000 0.4745000000 0.2901140000 1 1 1 v 0.0 0.0 0.0 mag 0.0 
0.5400880000 0.4749780000 0.2896890000 1 1 1 v 0.0 0.0 0.0 mag 0.0 
0.7901510000 0.4750040000 0.2901160000 1 1 1 v 0.0 0.0 0.0 mag 0.0 
0.0397910000 0.4750780000 0.5400910000 1 1 1 v 0.0 0.0 0.0 mag 0.0 
0.2888860000 0.4721810000 0.5394300000 1 1 1 v 0.0 0.0 0.0 mag 0.0 
0.5408050000 0.4718260000 0.5394560000 1 1 1 v 0.0 0.0 0.0 mag 0.0 
0.7905700000 0.4749820000 0.5401680000 1 1 1 v 0.0 0.0 0.0 mag 0.0 
0.0402810000 0.4752340000 0.7901900000 1 1 1 v 0.0 0.0 0.0 mag 0.0 
0.2902940000 0.4745860000 0.7899630000 1 1 1 v 0.0 0.0 0.0 mag 0.0 
0.5408370000 0.4722030000 0.7913830000 1 1 1 v 0.0 0.0 0.0 mag 0.0 
0.7901250000 0.4745190000 0.7901350000 1 1 1 v 0.0 0.0 0.0 mag 0.0 

