ATOMIC_SPECIES
C   12.011        C_ONCV_PBE-1.0.upf
Pt  195.084       Pt_ONCV_PBE-1.0.upf
H   1.008         H_ONCV_PBE-1.0.upf

NUMERICAL_ORBITAL
C_gga_7au_100Ry_2s2p1d.orb
Pt_gga_7au_100Ry_4s2p2d1f.orb
H_gga_6au_100Ry_2s1p.orb

LATTICE_CONSTANT
1.8897261258369282 

LATTICE_VECTORS
12.322700000      0.0000000000      0.0000000000      
0.0000000000      20.000000000      0.0000000000      
-6.161540000      0.0000000000      10.671500000      

ATOMIC_POSITIONS
Direct

C
0.0000000000
54
0.0226450000 0.5059240000 0.0246270000 1 1 1 v 0.0 0.0 0.0 mag 0.0 
0.1565560000 0.5036740000 0.0930500000 1 1 1 v 0.0 0.0 0.0 mag 0.0 
0.2243400000 0.5038890000 0.0277560000 1 1 1 v 0.0 0.0 0.0 mag 0.0 
0.3581500000 0.5059130000 0.0959540000 1 1 1 v 0.0 0.0 0.0 mag 0.0 
0.4236670000 0.5035770000 0.0276140000 1 1 1 v 0.0 0.0 0.0 mag 0.0 
0.5567340000 0.5035930000 0.0924660000 1 1 1 v 0.0 0.0 0.0 mag 0.0 
0.6224250000 0.5025960000 0.0245340000 1 1 1 v 0.0 0.0 0.0 mag 0.0 
0.7555220000 0.5034340000 0.0896900000 1 1 1 v 0.0 0.0 0.0 mag 0.0 
0.8210130000 0.5068570000 0.0213600000 1 1 1 v 0.0 0.0 0.0 mag 0.0 
0.9549930000 0.5046710000 0.0899620000 1 1 1 v 0.0 0.0 0.0 mag 0.0 
0.0211370000 0.4994700000 0.2230580000 1 1 1 v 0.0 0.0 0.0 mag 0.0 
0.1545000000 0.4975860000 0.2909860000 1 1 1 v 0.0 0.0 0.0 mag 0.0 
0.2232160000 0.5016010000 0.2267380000 1 1 1 v 0.0 0.0 0.0 mag 0.0 
0.3580500000 0.5058570000 0.2971290000 1 1 1 v 0.0 0.0 0.0 mag 0.0 
0.4249390000 0.5110460000 0.2290890000 1 1 1 v 0.0 0.0 0.0 mag 0.0 
0.5589430000 0.5163610000 0.2932670000 1 1 1 v 0.0 0.0 0.0 mag 0.0 
0.6242420000 0.5070900000 0.2256960000 1 1 1 v 0.0 0.0 0.0 mag 0.0 
0.7571530000 0.5040180000 0.2907160000 1 1 1 v 0.0 0.0 0.0 mag 0.0 
0.8225020000 0.5013060000 0.2230430000 1 1 1 v 0.0 0.0 0.0 mag 0.0 
0.9554290000 0.4982230000 0.2903970000 1 1 1 v 0.0 0.0 0.0 mag 0.0 
0.0218450000 0.4952780000 0.4243150000 1 1 1 v 0.0 0.0 0.0 mag 0.0 
0.1539660000 0.4929340000 0.4920050000 1 1 1 v 0.0 0.0 0.0 mag 0.0 
0.2186160000 0.4939140000 0.4242160000 1 1 1 v 0.0 0.0 0.0 mag 0.0 
0.3502030000 0.4959600000 0.4912950000 1 1 1 v 0.0 0.0 0.0 mag 0.0 
0.4184450000 0.5038230000 0.4297030000 1 1 1 v 0.0 0.0 0.0 mag 0.0 
0.6331040000 0.5321270000 0.4224940000 1 1 1 v 0.0 0.0 0.0 mag 0.0 
0.7626300000 0.5185450000 0.4906410000 1 1 1 v 0.0 0.0 0.0 mag 0.0 
0.8253220000 0.5045120000 0.4241040000 1 1 1 v 0.0 0.0 0.0 mag 0.0 
0.9571660000 0.4981200000 0.4919710000 1 1 1 v 0.0 0.0 0.0 mag 0.0 
0.0241140000 0.4991830000 0.6259210000 1 1 1 v 0.0 0.0 0.0 mag 0.0 
0.1564210000 0.4961560000 0.6936030000 1 1 1 v 0.0 0.0 0.0 mag 0.0 
0.2209530000 0.4929140000 0.6261630000 1 1 1 v 0.0 0.0 0.0 mag 0.0 
0.3533930000 0.4938200000 0.6941550000 1 1 1 v 0.0 0.0 0.0 mag 0.0 
0.4179920000 0.4967950000 0.6274570000 1 1 1 v 0.0 0.0 0.0 mag 0.0 
0.5468530000 0.5084100000 0.6896520000 1 1 1 v 0.0 0.0 0.0 mag 0.0 
0.7641000000 0.5286230000 0.6902330000 1 1 1 v 0.0 0.0 0.0 mag 0.0 
0.8292460000 0.5180410000 0.6258350000 1 1 1 v 0.0 0.0 0.0 mag 0.0 
0.9598350000 0.5064350000 0.6932360000 1 1 1 v 0.0 0.0 0.0 mag 0.0 
0.0246540000 0.5064850000 0.8264970000 1 1 1 v 0.0 0.0 0.0 mag 0.0 
0.1578310000 0.5026240000 0.8944380000 1 1 1 v 0.0 0.0 0.0 mag 0.0 
0.2236100000 0.4990580000 0.8273820000 1 1 1 v 0.0 0.0 0.0 mag 0.0 
0.3566370000 0.4994860000 0.8947130000 1 1 1 v 0.0 0.0 0.0 mag 0.0 
0.4222510000 0.4976590000 0.8270930000 1 1 1 v 0.0 0.0 0.0 mag 0.0 
0.5551630000 0.5015360000 0.8911860000 1 1 1 v 0.0 0.0 0.0 mag 0.0 
0.6194020000 0.5076940000 0.8213280000 1 1 1 v 0.0 0.0 0.0 mag 0.0 
0.7542450000 0.5126160000 0.8881540000 1 1 1 v 0.0 0.0 0.0 mag 0.0 
0.8220110000 0.5179310000 0.8216020000 1 1 1 v 0.0 0.0 0.0 mag 0.0 
0.9562300000 0.5103660000 0.8909130000 1 1 1 v 0.0 0.0 0.0 mag 0.0 
0.6307160000 0.6569690000 0.5930180000 1 1 1 v 0.0 0.0 0.0 mag 0.0 
0.7647330000 0.6810120000 0.6660640000 1 1 1 v 0.0 0.0 0.0 mag 0.0 
0.7668850000 0.7576540000 0.6815490000 1 1 1 v 0.0 0.0 0.0 mag 0.0 
0.6884180000 0.7792830000 0.7400860000 1 1 1 v 0.0 0.0 0.0 mag 0.0 
0.5535910000 0.7540350000 0.6643860000 1 1 1 v 0.0 0.0 0.0 mag 0.0 
0.5508820000 0.6775050000 0.6486150000 1 1 1 v 0.0 0.0 0.0 mag 0.0 

Pt
0.0000000000
1
0.5838090000 0.5477970000 0.5605410000 1 1 1 v 0.0 0.0 0.0 mag 0.0 

H
0.0000000000
12
0.4998320000 0.7670570000 0.7105660000 1 1 1 v 0.0 0.0 0.0 mag 0.0 
0.5890880000 0.6785390000 0.4974210000 1 1 1 v 0.0 0.0 0.0 mag 0.0 
0.8169850000 0.6669880000 0.6187450000 1 1 1 v 0.0 0.0 0.0 mag 0.0 
0.8119060000 0.6572600000 0.7587120000 1 1 1 v 0.0 0.0 0.0 mag 0.0 
0.8644410000 0.7743940000 0.7395640000 1 1 1 v 0.0 0.0 0.0 mag 0.0 
0.7306610000 0.7819960000 0.5895340000 1 1 1 v 0.0 0.0 0.0 mag 0.0 
0.6892630000 0.8340290000 0.7483890000 1 1 1 v 0.0 0.0 0.0 mag 0.0 
0.7311790000 0.7591280000 0.8359660000 1 1 1 v 0.0 0.0 0.0 mag 0.0 
0.5060640000 0.7781350000 0.5715440000 1 1 1 v 0.0 0.0 0.0 mag 0.0 
0.4535310000 0.6606270000 0.5890740000 1 1 1 v 0.0 0.0 0.0 mag 0.0 
0.5877110000 0.6534110000 0.7404120000 1 1 1 v 0.0 0.0 0.0 mag 0.0 
0.5940580000 0.5877780000 0.4445510000 1 1 1 v 0.0 0.0 0.0 mag 0.0 

